# Public starting configuration for the ICA review bundle.
# Generated from examples/structures/NEt4-CA.cif with a 4 x 3 x 3 repeat.
# No velocities are included; this is not the private post-NPT snapshot.
# (written by ASE)

8640 atoms
118 atom types

0.0      35.302969642464028  xlo xhi
0.0      74.012308017908282  ylo yhi
0.0      35.947583266419315  zlo zhi
-4.8641010311956017e-06    -0.73968430890524861 -4.7393378696368779e-06  xy xz yz

Atoms # atomic

     1  29      4.7636031326852049      12.394432086166814      1.2156974010452735
     2  29      3.8156341360240895    0.059100540835926106      10.766810207337304
     3  29      1.7048616945437369      11.702602188148525      1.7047931139663628
     4  29      6.8742261701177005      24.037949938320235      10.277710443304878
     5  29      6.0781978293942833      12.236808138814082      10.073406194720627
     6  29      2.5010286695133463      24.572255114219377      1.9091447428815596
     7  29      7.4485479813006643      12.131435313334975       3.128665912857663
     8  29       1.130562426809546      24.466847363361527      8.8539647392064484
     9  29      8.5818353696875445      12.127204884175669      8.1664424194667404
    10  29  -0.0024477996096961925      24.462775815799368      3.8163140616331384
    11  29      2.9630120829303186      11.999840621195712      9.1335681824673802
    12  29      5.6162011226648536      24.335170009982455      2.8491092749947078
    13  29      1.3326926503675003       11.95236767337682       4.970536083388847
    14  29      7.2465605517360174       24.28772867722402      7.0121421190709086
    15  29      4.4467852727623551      12.596150046354696      4.5614794421595377
    16  29      4.1324046477518062     0.26080557800870857      7.4209856294636376
    17   7      8.5339956196492679      13.162531094990909      4.4991808575677226
    18   7    0.045339864678811542     0.82727243327153765      7.4834254447426245
    19   7      8.0557488517099589      13.580316177325914      5.5450109677624866
    20   7     0.52353902300717625      1.2450940163915383      6.4376018877281602
    21   7      4.6491920634434596      13.532465371766971      7.5049338576405642
    22   7       3.929969100916519      1.1971050958663902      4.4775729669830495
    23   7      1.2669756119239521      10.625321433108287      10.910718831977039
    24   7       7.312106984669005      22.960669917696254      1.0717787849441902
    25   7      4.2893039603085867      11.166194199060223      10.416158559766773
    26   7      4.2898689578960703      23.501584620343596       1.566390355126267
    27   7      6.4179652357581141       11.14771943329727       1.679085830311885
    28   7      2.1613201721062003      23.483112737376487      10.303550014957949
    29   7      2.8896763950390847      13.185469505876853     0.90366497259741219
    30   7      5.6893796941019685     0.84992219093635613      11.078975461140789
    31   7     0.33617869501738018       9.829587340547878      6.6201148821301521
    32   7      8.2431169670873317      22.165033676178609      5.3624213157379943
    33   7      4.2969997747831972      9.9521161947317083      10.607044084767642
    34   7      4.2821210902551865      22.287479301623179      1.3756624388351535
    35   7      4.8627605514849455      13.803953717143322       6.374978267875167
    36   7      3.7164831869638806      1.4686517212243198      5.6075293484146211
    37   7      1.5980552973235127      13.043526045594195      8.0409748002304884
    38   7      6.9811862120271497     0.70823493491802303      3.9415242925262959
    39   7      6.8108531301550039       11.17443842773022      8.4799434426162552
    40   7      1.7684608203024599      23.509896579452032      3.5026135044179361
    41   7      1.0118215875381966      9.4398406384586231      3.2972048992364256
    42   7       7.567236350931041       21.77512677991027      8.6854090194317504
    43   7      1.3833231701119555      10.891265800804716      9.7387292132283196
    44   7      7.1958580251370057      23.226620042106454      2.2437738123877731
    45   7   -0.024548397687544968      12.748505415408202      1.7367700993661772
    46   7      8.6035912983519136      0.4131860174818171      10.245898285118564
    47   7      6.1377462775716172      10.263667253409833      4.7800228657863491
    48   7      2.4415658944027889      22.599195616813418      7.2024257399612486
    49   7      2.3452705368497346      13.861691885681548      11.905687410550415
    50   7      6.2338176789867541      1.5261276272033957    0.076930736304725078
    51   7     0.32227487652322895      11.055998667461829      6.5254221061282127
    52   7      8.2569653885244829      23.391465521396388      5.4571488648629929
    53   7      3.6029387599176266       10.36749305741262      7.5798777561367912
    54   7      4.9763419113433898       22.70289864519907      4.4026577940724367
    55   7      8.6387676380199814       13.86712017985511      1.2606661612491736
    56   7   -0.059639844577879318      1.5317807771845922       10.72202447593552
    57   7      5.3833047421982858       14.54622807875082      11.575710140776419
    58   7      3.1957811190036836      2.2108213166293993     0.40684644843038786
    59   7      6.1557810226468792      11.472026098392538      4.5585601060916048
    60   7      2.4233445793140045      23.807542216333086      7.4239421935268934
    61   7      3.2033268349493143      11.058256197162565      5.3219641640609412
    62   7      5.3757068368955396      23.393556676938612      6.6606431998183764
    63   7      5.3640697537264153      13.622973712153703      3.0288674161126767
    64   7      3.2151690593464695      1.2876373742499221      8.9537711637912931
    65   7       7.789133146632639      14.488298648784859      9.5347257728548875
    66   7     0.79015334231945489      2.1529828474649992      2.4478482351666573
    67   7      4.4607541983965548      13.304451879117154      8.6817247222933318
    68   7      4.1183773236837169     0.96900286886722975      3.3007926394941349
    69   7      3.5718501361571828       11.00128165362619      2.0985767306917804
    70   7      5.0072718623676424      23.336564650129873      9.8840242961602485
    71   7     0.83188454391486999      10.651221334684667       3.259773950666184
    72   7      7.7473117299621821      22.986490227285138      8.7228743862314513
    73   7      2.6146850335509155      13.402858630504177      4.3533321746914284
    74   7      5.9645158222288721      1.0676867966209214      7.6292122649318568
    75   7      5.5223095137472029      13.331450712216956      11.719510158424725
    76   7      3.0568287804421788     0.99604363764351944     0.26303606319368061
    77   7      3.8817345895656334      9.8154977516408675      2.1805781751778497
    78   7      4.6973573621486162      22.150783845657468       9.802041618591419
    79   7      6.9580907005168697      10.867038610569372     0.61995721690155225
    80   7      1.6211100265840037      23.202372995568236      11.362631675113349
    81   7       4.926954428853688      18.157001057436705      6.2334793130980799
    82   7      3.6522027701958319      5.8215557197173764      5.7490742257580587
    83   7      7.9945426161489568      6.3582022854042641      11.869009719607009
    84   7     0.58461203915697069      18.693643105902098     0.11335337225655616
    85   7      5.4625268852202025      14.842021853607944      2.9736424779820125
    86   7      3.1167659395621534       2.506686345539777      9.0090387555273015
    87   7      7.8230575236718911      13.267124547483945      9.6806340673203568
    88   7     0.75613918736002228     0.93182239428223557      2.3018134091833065
    89   7      1.6813804163196389      14.264540697678134      7.9197564290871378
    90   7      6.8978271106877065      1.9292393056284876      4.0627758069289097
    91   7      3.4137756775386126      10.705288739442491      6.4700823558529832
    92   7      5.1653591179785865      23.040676066931635      5.5124902894965349
    93   7      6.6621512221215795      9.9550269048099107      8.4363452282176503
    94   7      1.9170404785233528      22.290470521224389       3.546117645552862
    95   7     0.35084770868561649      8.6640953243259435      6.7011769552267015
    96   7      8.2284651147770553      20.999521028572442      5.2814338763557416
    97   7      2.3528053892821745      14.471622472644942      3.8164384633133417
    98   7       6.226390046295653       2.136435220776975      8.1661548591630222
    99   7      2.0691233813252232      14.526417635357674      10.984166114149959
   100   7      6.5100781548225699      2.1908838625710487     0.99839122930485635
   101   7      6.4803131196627399      8.8034451071797672      8.3807271851944467
   102   7      2.0986419163600329       21.13885078203025      3.6016077116936072
   103   7      4.2040488351688419      8.6986478440918553      2.2750356520909465
   104   7      4.3749847898501111      21.033937298557337       9.707713644417435
   105   7      1.1571144548173238      8.2767751063018515      3.3261493412180396
   106   7      7.4217953344667933      20.612076026472369      8.6563997736857257
   107   7      4.3185159188868099      8.8077921598414211      10.844508781957927
   108   7      4.2606560564433407      21.143120311088445      1.1383896647088887
   109   7      7.1308297101703086      10.631319912092026      11.533156881567393
   110   7      1.4481568960705693      22.966646393731917     0.44933538677774715
   111   7      2.1005564659277036      15.493091174573344        3.30815294988966
   112   7      6.4784793169973591      3.1579949959433438      8.6743579653939733
   113   7      6.1396910746621609      9.1179679403473859      5.0123572368191969
   114   7      2.4397144284814956       21.45348003771484      6.9701760549770704
   115   7      7.6871974339884375      13.952766982384045      6.5920099257290907
   116   7     0.89206376148488475       1.617673709642989      5.3906288151903956
   117   7      5.2640322732331049      15.699134626240241      11.442320803525647
   118   7      3.3150303663137213      3.3637319783656818     0.54019855466211697
   119   7      1.3581190026003267      10.325099406804002    0.063572459467938755
   120   7      7.2209401919783067      22.660461009294043      11.918916279281023
   121   7      1.7549078222830383      15.418690729602799      7.7654830441588034
   122   7       6.824326365443957      3.0834000994249364      4.2170490417949322
   123   7       7.766865798873595      15.647831190896705      9.4129501715300243
   124   7     0.81248075167488421      3.3124935945281022      2.5697899766811876
   125   6     0.74798143638235537       5.815044447371001     0.41216874156095079
   126   6      7.8311561357179036      18.150455595390575      11.570260118213042
   127   1     0.59653262013498087      5.6399542105453371      1.4799527068677203
   128   1      7.9825845511836748      17.975537943289297      10.502454319650329
   129   1     0.64823455024722554      4.8357129477959591      11.932735982072813
   130   1      7.9309661414186712      17.171091953286563    0.049650647084087035
   131   7      8.4463865472741588      14.924147199664958     0.80583738881278266
   132   7     0.13275859276202898       2.588804540392081      11.176858121778706
   133   6      2.4060332764410508      18.153985133374988      5.7639350203049595
   134   6      6.1731675559814496      5.8183835233627033      6.2181963904568294
   135   1      2.4382456094446407      19.124369220537833      5.2596196956845622
   136   1      6.1410174526996855      6.7889245397838964      6.7222398807579298
   137   1      2.0674932077877344      18.303511925896238        6.79345325231722
   138   1      6.5115274630258728      5.9675310016330236      5.1885629416934043
   139   1      1.6533029241672836      17.538669897545098      5.2574925210390653
   140   1      6.9259596876950251      5.2031613123604581       6.724669984781614
   141   6       1.945171304848019      6.7151783608559468     0.16854252490902921
   142   6      6.6340279501820794      19.050580220602086      11.813943508678584
   143   1      2.0023817855950172      6.7351546873150481       11.10047585851388
   144   1       6.576928554133457      19.070748183618417      0.8820169332448351
   145   1      2.7848072075901906      6.3102742976388324     0.74335448738580023
   146   1      5.7942914745037903      18.645641831463156       11.23932788892713
   147   1      1.7882640433921131      7.7432359287091463     0.50654880084019216
   148   1      6.7909205629715057      20.078542199901271      11.475716916958596
   149   6      5.1466713871720318      19.454373855179121      5.4563552961913473
   150   6      3.4325693541293871      7.1189415118685595      6.5262724696324712
   151   1      4.3619008511443331      20.143302339785937      5.7855888603786729
   152   1      4.2172390718474189      7.8079625030650543      6.1969660545051228
   153   1      6.1018423015858696      19.857320173542163      5.8045742345151758
   154   1      2.4773191152084593       7.521950035264406      6.1782718614952854
   155   6      4.7242468017722263      18.564421351328946      7.6859683549162563
   156   6       3.854803895086877       6.228969935789495      4.2966048161100616
   157   1      3.8518042681501794      19.224299767859694      7.7009367609097064
   158   1      4.7270944334462426      6.8890611812205309      4.2816020371184234
   159   1      5.5881092766605649      19.180313426177204      7.9534367359149813
   160   1      2.9907641521741506      6.8446324917804739      4.0293174005932784
   161   6      7.4208697558854881      17.718139771988746      6.7148382056853375
   162   6      1.1582785200555485      5.3825540592550229      5.2677019600877015
   163   1      7.7536441258384787      18.680336763317992      6.3154891737888477
   164   1     0.82518636426283609      6.3444573927001517      5.6673987522460632
   165   1      8.1943706886874743      16.971436528050454      6.4951338290555247
   166   1     0.38492651489592644      4.6356752991922443      5.4872816137575953
   167   1      7.3532303646644275      17.791981574921923      7.8032630128622218
   168   1      1.2260691615219126      5.4568275662337777      4.1793058953386746
   169   7       5.596245008121115      16.004082117235679      2.8783048783122096
   170   7      2.9831499131083832      3.6687632937457555      9.1043870402004607
   171   6      3.7196472651324739      17.397863979798768      5.6922548068946845
   172   6      4.8595137793409959      5.0623716567258317      6.2902266425937228
   173   1      3.9699583114001826      17.131177295111822      4.6611678440479443
   174   1      4.6094588807512027      4.7957814574132129      7.3214136106695067
   175   1      3.6617673520888308       16.46375474960146       6.257709407642368
   176   1      4.9172276947794886      4.1282013745033135      5.7248465016325545
   177   6      6.1301056737829169      17.224061644498779      6.0875965600618427
   178   6      2.4490420019182224      4.8886323544767158      5.8949758417811671
   179   1      5.8307690875159519      16.265746566938184      6.5244352419206626
   180   1      2.7483469439824368      3.9303165029554052      5.4581575799925917
   181   1      6.2497813942465203      17.053064154949649      5.0133558740717481
   182   1      2.3292702283469979      4.7177334105969795      6.9692296401693898
   183   6      5.6371482851380028      5.5563621976901656      11.306456204194236
   184   6      2.9419387110183033      17.891762990605702     0.67610782130296165
   185   1      5.6492246345163766      5.6457560383329186       10.21598981363748
   186   1      2.9294914569226784       17.98109677032701      1.7665757930664105
   187   1      5.2360058883430307      6.4850118560709529      11.723652181752843
   188   1       3.343154015614541      18.820396792360881     0.25899417838316663
   189   1      4.9385714063248081      4.7491338052719039      11.557286382715841
   190   1      3.6404670561236387      17.084409681215693     0.42547783459326416
   191   6      7.0056960416554706      5.1973099505576448      11.854231013650629
   192   6      1.5734527086432022      17.532756456761298      0.1281406880970157
   193   1      7.2001818175126253      4.8212431924585024     0.89788496786065197
   194   1      1.3790624008765946      17.156680861267414       11.08447663709773
   195   1       7.465854273360236      4.4052021811194315      11.259087295710025
   196   1      1.1133548069226273      16.740668260655664     0.72336285582941362
   197   6      4.5580836085118506      17.406118596941866      8.6497390585783123
   198   6      4.0210375269835366      5.0707393527617555      3.3328460326343503
   199   1      3.6696569383813711      16.801101617277705      8.4440454079966951
   200   1      4.9096521599733007      4.4659783639410282      3.5383030660361872
   201   1      4.4395505408024061       17.82352928077913      9.6559384214517223
   202   1      4.1393662491119985      5.4882265353153734      2.3267027344826414
   203   1       5.436220523729312      16.754177772255105       8.684928784904665
   204   1       3.143087542974087      4.4185624948117628      3.2977022705145274
   205   6      8.1530952077635046      6.9503362796150077      10.478505124986702
   206   6     0.42611388713895643      19.285909182182682      1.5038071591469302
   207   1    0.011097459873423934      7.7981852737010824      10.581558105848979
   208   1      8.5679888101582158      20.133637528676338      1.4006173800279111
   209   1      7.1801132220311672      7.3642239408237486      10.198590593371854
   210   1      1.3991342560531765      19.699779169019745      1.7836516314319844
   211   6    -0.18783301894283239      5.9659467384326881       9.429271126630665
   212   6       8.767115630846412      18.301609695518518      2.5531398986201723
   213   1   -0.017938940299460724      6.5320224141009309      8.5044712854515137
   214   1      8.5970139658199241      18.867679884602683      3.4779106527825343
   215   1      7.8987565156808932      5.1871081215683228      9.2169397210746542
   216   1     0.68065292735674643      17.522894762344848      2.7654362478379682
   217   1      0.7526498496499382      5.4790183227119806      9.7079519260426785
   218   1      7.8267842608232385      17.814413644817687      2.2744659099557287
   219   6      5.1314840546571112      19.308469745235833      3.9463110464512514
   220   6      3.4479921657226016      6.9729686776300577      8.0363771096418386
   221   1      4.1192248152934754      19.162801340439433      3.5585456728375893
   222   1      4.4602508296882855      6.8268703309316772       8.424079640799313
   223   1      5.7649491584696184      18.492599132388399      3.5923173151207748
   224   1      2.8142363693687527      6.1572521568406655      8.3903012428917254
   225   1      5.5101055185066619        20.2415738017087      3.5150155682501687
   226   1        3.06976846648619      7.9061588754609984      8.4678861625708883
   227   6         7.7463749454282      7.4831796332687723     0.79740772207637278
   228   6     0.83284653939091302      19.818592463822696      11.184919023693116
   229   1      8.5916713095246298      8.1670199339793044     0.91820271470253068
   230   1   -0.012414897039729643       20.50244190502498      11.064067359327856
   231   1      6.9704253046956737      8.0164405198124005     0.23913144008786985
   232   1      1.6087952417884905      20.351872202079967      11.743183855701348
   233   6      7.2101449535631108      7.0164781461556895      2.1378295522091237
   234   6      1.3690123815099777      19.351820558962917      9.8445063081680342
   235   1      6.2507968688211504       6.504309324421758      2.0270783489902171
   236   1      2.3283627695742015      18.839665838962663      9.9552679985518022
   237   1      7.0403943532471729      7.8959573626557109       2.769811162108256
   238   1      1.5387320385770218      20.231223304885475      9.2123956336574171
   239   1      7.9062942631760578      6.3621914700936459      2.6712106438078189
   240   1     0.67276090896030516       18.69749341132367      9.3113110495365348
   241  29      4.5170416963834557      12.394430506387524      13.198225156518379
   242  29      3.5690726997223399    0.059098961056636229      22.749337962810408
   243  29      1.4583002582419873      11.702600608369234      13.687320869439468
   244  29      6.6276647338159513      24.037948358540945      22.260238198777984
   245  29      5.8316363930925341      12.236806559034791      22.055933950193733
   246  29      2.2544672332115967      24.572253534440087      13.891672498354666
   247  29      7.2019865449989151      12.131433733555685      15.111193668330769
   248  29     0.88400099050779646      24.466845783582237      20.836492494679554
   249  29      8.3352739333857944      12.127203304396378      20.148970174939848
   250  29    -0.24900923591144572      24.462774236020078      15.798841817106243
   251  29      2.7164506466285689      11.999839041416422      21.116095937940486
   252  29      5.3696396863631044      24.335168430203165      14.831637030467814
   253  29      1.0861312140657509      11.952366093597529      16.953063838861951
   254  29      6.9999991154342682       24.28772709744473      18.994669874544016
   255  29      4.2002238364606059      12.596148466575405      16.544007197632645
   256  29      3.8858432114500565     0.26080399822941869      19.403513384936744
   257   7      8.2874341833475178      13.162529515211618       16.48170861304083
   258   7    -0.20122157162293799     0.82727085349224783      19.465953200215729
   259   7      7.8091874154082097      13.580314597546623      17.527538723235594
   260   7     0.27697758670542671      1.2450924366122484      18.420129643201264
   261   7      4.4026306271417104      13.532463791987681       19.48746161311367
   262   7      3.6834076646147693      1.1971035160871004      16.460100722456154
   263   7      1.0204141756222027      10.625319853328996      22.893246587450143
   264   7      7.0655455483672558      22.960668337916964      13.054306540417295
   265   7      4.0427425240068375      11.166192619280933      22.398686315239878
   266   7      4.0433075215943211      23.501583040564306      13.548918110599372
   267   7      6.1714037994563649       11.14771785351798      13.661613585784991
   268   7      1.9147587358044507      23.483111157597197      22.286077770431056
   269   7       2.643114958737335      13.185467926097562      12.886192728070517
   270   7      5.4428182578002193      0.8499206111570663      23.061503216613893
   271   7    0.089617258715630643      9.8295857607685875      18.602642637603257
   272   7      7.9965555307855825      22.165032096399319      17.344949071211101
   273   7       4.050438338481448      9.9521146149524178      22.589571840240747
   274   7      4.0355596539534373      22.287477721843889      13.358190194308259
   275   7      4.6161991151831963      13.803952137364032      18.357506023348272
   276   7      3.4699217506621309      1.4686501414450299      17.590057103887727
   277   7      1.3514938610217633      13.043524465814905      20.023502555703594
   278   7      6.7346247757254005      0.7082333551387332      15.924052047999401
   279   7      6.5642916938532547      11.174436847950929      20.462471198089361
   280   7      1.5218993840007102      23.509894999672742      15.485141259891041
   281   7     0.76526015123644708      9.4398390586793326       15.27973265470953
   282   7      7.3206749146292918      21.775125200130979      20.667936774904856
   283   7      1.1367617338102058      10.891264221025425      21.721256968701425
   284   7      6.9492965888352565      23.226618462327163       14.22630156786088
   285   7     -0.2711098339892945      12.748503835628911      13.719297854839283
   286   7      8.3570298620501635     0.41318443770252722      22.228426040591671
   287   7       5.891184841269868      10.263665673630543      16.762550621259454
   288   7      2.1950044581010393      22.599194037034128      19.184953495434353
   289   7       2.098709100547985      13.861690305902258      23.888215166023521
   290   7      5.9872562426850049      1.5261260474241058       12.05945849177783
   291   7    0.075713440221479411      11.055997087682538      18.507949861601318
   292   7      8.0104039522227328      23.391463941617097      17.439676620336098
   293   7      3.3563773236158769       10.36749147763333      19.562405511609896
   294   7      4.7297804750416406       22.70289706541978      16.385185549545543
   295   7      8.3922062017182313       13.86711860007582       13.24319391672228
   296   7    -0.30620128087962883      1.5317791974053023      22.704552231408627
   297   7      5.1367433058965366       14.54622649897153      23.558237896249523
   298   7      2.9492196827019339      2.2108197368501092      12.389374203903493
   299   7        5.90921958634513      11.472024518613248      16.541087861564712
   300   7      2.1767831430122548      23.807540636553796      19.406469948999998
   301   7      2.9567653986475646      11.058254617383275      17.304491919534048
   302   7      5.1291454005937904      23.393555097159322      18.643170955291481
   303   7      5.1175083174246661      13.622972132374413      15.011395171585782
   304   7      2.9686076230447198      1.2876357944706323      20.936298919264399
   305   7      7.5425717103308898      14.488297069005569      21.517253528327991
   306   7     0.54359190601770535      2.1529812676857092      14.430375990639764
   307   7      4.2141927620948056      13.304450299337864      20.664252477766439
   308   7      3.8718158873819672     0.96900128908793992      15.283320394967241
   309   7      3.3252886998554332        11.0012800738469      14.081104486164886
   310   7      4.7607104260658932      23.336563070350582      21.866552051633356
   311   7     0.58532310761312045      10.651219754905377       15.24230170613929
   312   7      7.5007502936604329      22.986488647505848      20.705402141704557
   313   7      2.3681235972491659      13.402857050724887      16.335859930164535
   314   7      5.7179543859271229      1.0676852168416315      19.611740020404962
   315   7      5.2757480774454537      13.331449132437665      23.702037913897833
   316   7      2.8102673441404291     0.99604205786422961      12.245563818666787
   317   7      3.6351731532638838       9.815496171861577      14.163105930650955
   318   7       4.450795925846867      22.150782265878178      21.784569374064525
   319   7      6.7115292642151205      10.867037030790081      12.602484972374658
   320   7      1.3745485902822541      23.202371415788946      23.345159430586456
   321   7      4.6803929925519387      18.156999477657415      18.216007068571187
   322   7      3.4056413338940823      5.8215541399380868      17.731601981231165
   323   7      7.7479811798472076      6.3582007056249745      23.851537475080114
   324   7     0.33805060285522115      18.693641526122807      12.095881127729662
   325   7      5.2159654489184533      14.842020273828654      14.956170233455119
   326   7      2.8702045032604038      2.5066847657604869      20.991566511000407
   327   7      7.5764960873701419      13.267122967704655      21.663161822793462
   328   7     0.50957775105827274     0.93182081450294574      14.284341164656412
   329   7      1.4348189800178894      14.264539117898844      19.902284184560244
   330   7      6.6512656743859573      1.9292377258491977      16.045303562402015
   331   7      3.1672142412368629        10.7052871596632      18.452610111326088
   332   7      4.9187976816768373      23.040674487152344       17.49501804496964
   333   7      6.4155897858198303      9.9550253250306202      20.418872983690754
   334   7      1.6704790422216034      22.290468941445098      15.528645401025967
   335   7     0.10428627238386695       8.664093744546653      18.683704710699807
   336   7      7.9819036784753061      20.999519448793151      17.263961631828849
   337   7      2.1062439529804249      14.471620892865651      15.798966218786447
   338   7      5.9798286099939038       2.136433640997685       20.14868261463613
   339   7      1.8225619450234736      14.526416055578384      22.966693869623064
   340   7      6.2635167185208207      2.1908822827917587      12.980918984777961
   341   7      6.2337516833609907      8.8034435274004768      20.363254940667552
   342   7      1.8520804800582833       21.13884920225096      15.584135467166712
   343   7      3.9574873988670922      8.6986462643125648      14.257563407564053
   344   7      4.1284233535483619      21.033935718778046      21.690241399890539
   345   7     0.91055301851557424       8.276773526522561      15.308677096691145
   346   7      7.1752338981650441      20.612074446693079      20.638927529158831
   347   7      4.0719544825850607      8.8077905800621306      22.827036537431034
   348   7      4.0140946201415915      21.143118731309155      13.120917420181994
   349   7      6.8842682738685594      10.631318332312736      23.515684637040501
   350   7      1.2015954597688197      22.966644813952627      12.431863142250853
   351   7       1.853995029625954      15.493089594794053      15.290680705362766
   352   7      6.2319178806956099      3.1579934161640537      20.656885720867081
   353   7      5.8931296383604117      9.1179663605680954      16.994884992292302
   354   7      2.1931529921797459       21.45347845793555      18.952703810450174
   355   7      7.4406359976866883      13.952765402604754      18.574537681202195
   356   7     0.64550232518313522      1.6176721298636991        17.3731565706635
   357   7      5.0174708369313556       15.69913304646095      23.424848558998754
   358   7      3.0684689300119716      3.3637303985863918      12.522726310135223
   359   7      1.1115575662985773      10.325097827024711      12.046100214941044
   360   7      6.9743787556765575      22.660459429514752      23.901444034754128
   361   7      1.5083463859812887      15.418689149823509       19.74801079963191
   362   7      6.5777649291422078      3.0833985196456464      16.199576797268037
   363   7      7.5203043625718458      15.647829611117414      21.395477927003128
   364   7     0.56591931537313467      3.3124920147488122      14.552317732154293
   365   6     0.50142000008060583      5.8150428675917114      12.394696497034056
   366   6      7.5845946994161544      18.150454015611285       23.55278787368615
   367   1     0.34997118383323134      5.6399526307660475      13.462480462340826
   368   1      7.7360231148819256      17.975536363510006      22.484982075123433
   369   1       0.401673113945476      4.8357113680166695      23.915263737545921
   370   1       7.684404705116922      17.171090373507273      12.032178402557193
   371   7      8.1998251109724087      14.924145619885667      12.788365144285889
   372   7    -0.11380284353972056      2.5888029606127909      23.159385877251811
   373   6      2.1594718401393012      18.153983553595697      17.746462775778063
   374   6      5.9266061196797004      5.8183819435834137      18.200724145929936
   375   1      2.1916841731428911      19.124367640758543      17.242147451157667
   376   1      5.8944560163979363      6.7889229600046068      18.704767636231036
   377   1      1.8209317714859847      18.303510346116948      18.775981007790325
   378   1      6.2649660267241236       5.967529421853734      17.171090697166509
   379   1       1.406741487865534      17.538668317765808      17.240020276512169
   380   1      6.6793982513932759      5.2031597325811685       18.70719774025472
   381   6      1.6986098685462694      6.7151767810766572      12.151070280382134
   382   6      6.3874665138803302      19.050578640822796      23.796471264151691
   383   1      1.7558203492932676      6.7351531075357585      23.083003613986985
   384   1      6.3303671178317078      19.070746603839126       12.86454468871794
   385   1       2.538245771288441      6.3102727178595428      12.725882242858905
   386   1      5.5477300382020411      18.645640251683865      23.221855644400236
   387   1      1.5417026070903637      7.7432343489298567      12.489076556313298
   388   1      6.5443591266697565      20.078540620121981      23.458244672431704
   389   6      4.9001099508702826       19.45437227539983      17.438883051664455
   390   6      3.1860079178276375      7.1189399320892699      18.508800225105578
   391   1      4.1153394148425839      20.143300760006646      17.768116615851778
   392   1      3.9706776355456692      7.8079609232857647      18.179493809978229
   393   1      5.8552808652841204      19.857318593762873       17.78710198998828
   394   1      2.2307576789067096      7.5219484554851164       18.16079961696839
   395   6      4.4776853654704771      18.564419771549655      19.668496110389363
   396   6      3.6082424587851274      6.2289683560102054      16.279132571583169
   397   1      3.6052428318484298      19.224298188080404      19.683464516382813
   398   1      4.4805329971444934      6.8890596014412413      16.264129792591529
   399   1      5.3415478403588157      19.180311846397913      19.935964491388088
   400   1      2.7442027158724009      6.8446309120011843      16.011845156066386
   401   6      7.1743083195837389      17.718138192209455      18.697365961158443
   402   6     0.91171708375379901      5.3825524794757333      17.250229715560806
   403   1      7.5070826895367295      18.680335183538702      18.298016929261955
   404   1     0.57862492796108655      6.3444558129208621      17.649926507719169
   405   1      7.9478092523857251      16.971434948271163      18.477661584528629
   406   1      0.1383650785941769      4.6356737194129547      17.469809369230703
   407   1      7.1066689283626783      17.791979995142633      19.785790768335328
   408   1     0.97950772522016305      5.4568259864544881      16.161833650811779
   409   7      5.3496835718193658      16.004080537456389      14.860832633785314
   410   7      2.7365884768066335      3.6687617139664654      21.086914795673565
   411   6      3.4730858288307243      17.397862400019477      17.674782562367788
   412   6      4.6129523430392467      5.0623700769465421       18.27275439806683
   413   1       3.723396875098433      17.131175715332532      16.643695599521049
   414   1      4.3628974444494535      4.7957798776339233      19.303941366142613
   415   1      3.4152059157870811      16.463753169822169      18.240237163115474
   416   1      4.6706662584777394      4.1281997947240239      17.707374257105659
   417   6      5.8835442374811677      17.224060064719488      18.070124315534947
   418   6      2.2024805656164728      4.8886307746974262      17.877503597254272
   419   1      5.5842076512142027      16.265744987158893      18.506962997393767
   420   1      2.5017855076806872      3.9303149231761152      17.440685335465698
   421   1      6.0032199579447711      17.053062575170358      16.995883629544853
   422   1      2.0827087920452483      4.7177318308176899      18.951757395642495
   423   6      5.3905868488362536       5.556360617910876      23.288983959667341
   424   6      2.6953772747165536      17.891761410826412      12.658635576776067
   425   1      5.4026631982146274       5.645754458553629      22.198517569110585
   426   1      2.6829300206209288       17.98109519054772      13.749103548539516
   427   1      4.9894444520412815      6.4850102762916633      23.706179937225947
   428   1      3.0965925793127913      18.820395212581591      12.241521933856273
   429   1      4.6920099700230589      4.7491322254926143      23.539814138188945
   430   1      3.3939056198218891      17.084408101436402       12.40800559006637
   431   6      6.7591346053537213      5.1973083707783552      23.836758769123733
   432   6      1.3268912723414528      17.532754876982008      12.110668443570122
   433   1      6.9536203812108761      4.8212416126792128      12.880412723333757
   434   1      1.1325009645748452      17.156679281488124      23.067004392570837
   435   1      7.2192928370584868      4.4052006013401419      23.241615051183132
   436   1      0.8667933706208778      16.740666680876373       12.70589061130252
   437   6      4.3115221722101014      17.406117017162575       20.63226681405142
   438   6      3.7744760906817869      5.0707377729824659      15.315373788107456
   439   1      3.4230955020796214      16.801100037498415      20.426573163469801
   440   1      4.6630907236715515      4.4659767841617386      15.520830821509293
   441   1      4.1929891045006569       17.82352770099984       21.63846617692483
   442   1      3.8928048128102488      5.4882249555360838      14.309230489955747
   443   1      5.1896590874275628      16.754176192475814      20.667456540377771
   444   1      2.8965261066723373      4.4185609150324732      15.280230025987633
   445   6      7.9065337714617554      6.9503346998357181      22.461032880459808
   446   6     0.17955245083720689      19.285907602403391      13.486334914620036
   447   1    -0.23546397642832562      7.7981836939217928      22.564085861322084
   448   1      8.3214273738564657      20.133635948897048      13.383145135501017
   449   1       6.933551785729418       7.364222361044459      22.181118348844961
   450   1      1.1525728197514269      19.699777589240455       13.76617938690509
   451   6    -0.43439445524458192      5.9659451586533985      21.411798882103771
   452   6      8.5205541945446619      18.301608115739228      14.535667654093277
   453   1    -0.26450037660121029      6.5320208343216413      20.486999040924619
   454   1       8.350452529518174      18.867678304823393      15.460438408255641
   455   1       7.652195079379144      5.1871065417890332       21.19946747654776
   456   1     0.43409149105499689      17.522893182565557      14.747964003311074
   457   1     0.50608841334818866       5.479016742932691      21.690479681515782
   458   1      7.5802228245214893      17.814412065038397      14.256993665428833
   459   6       4.884922618355362      19.308468165456542      15.928838801924357
   460   6      3.2014307294208519      6.9729670978507681      20.018904865114944
   461   1      3.8726633789917257      19.162799760660143      15.541073428310694
   462   1      4.2136893933865363      6.8268687511523876       20.40660739627242
   463   1      5.5183877221678692      18.492597552609109      15.574845070593881
   464   1       2.567674933067003      6.1572505770613759      20.372828998364831
   465   1      5.2635440822049127       20.24157222192941      15.497543323723274
   466   1      2.8232070301844403      7.9061572956817088      20.450413918043992
   467   6      7.4998135091264508      7.4831780534894827      12.779935477549479
   468   6     0.58628510308916348      19.818590884043406       23.16744677916622
   469   1      8.3451098732228797      8.1670183542000139      12.900730470175636
   470   1    -0.25897633334147918       20.50244032524569      23.046595114800962
   471   1      6.7238638683939245        8.01643894003311      12.221659195560976
   472   1      1.3622338054867411      20.351870622300677      23.725711611174454
   473   6      6.9635835172613616      7.0164765663763999       14.12035730768223
   474   6      1.1224509452082283      19.351818979183626       21.82703406364114
   475   1      6.0042354325194012      6.5043077446424684      14.009606104463323
   476   1      2.0818013332724519      18.839664259183373      21.937795754024908
   477   1      6.7938329169454237      7.8959557828764213      14.752338917581362
   478   1      1.2921706022752724      20.231221725106185      21.194923389130523
   479   1      7.6597328268743086      6.3621898903143563      14.653738399280925
   480   1     0.42619947265855562      18.697491831544379      21.293838805009642
   481  29      4.2704802600817056      12.394428926608235      25.180752911991483
   482  29      3.3225112634205907    0.059097381277346352      34.731865718283515
   483  29      1.2117388219402379      11.702599028589946      25.669848624912575
   484  29      6.3811032975142012      24.037946778761654      34.242765954251091
   485  29       5.585074956790784      12.236804979255503       34.03846170566684
   486  29      2.0079057969098475      24.572251954660796       25.87420025382777
   487  29       6.955425108697165      12.131432153776396      27.093721423803874
   488  29     0.63743955420604692      24.466844203802946      32.819020250152661
   489  29       8.088712497084046      12.127201724617089      32.131497930412948
   490  29    -0.49557067221319528      24.462772656240787      27.781369572579351
   491  29      2.4698892103268193      11.999837461637133      33.098623693413593
   492  29      5.1230782500613543      24.335166850423875      26.814164785940918
   493  29     0.83956977776400121      11.952364513818241      28.935591594335058
   494  29      6.7534376791325181      24.287725517665439       30.97719763001712
   495  29      3.9536624001588558      12.596146886796117      28.526534953105749
   496  29      3.6392817751483069      0.2608024184501288      31.386041140409848
   497   7      8.0408727470457695       13.16252793543233      28.464236368513934
   498   7     -0.4477830079246875     0.82726927371295789      31.448480955688837
   499   7      7.5626259791064596      13.580313017767335      29.510066478708698
   500   7    0.030416150403677178      1.2450908568329586      30.402657398674371
   501   7      4.1560691908399603      13.532462212208392      31.469989368586774
   502   7      3.4368462283130201      1.1971019363078106      28.442628477929262
   503   7     0.77385273932045306      10.625318273549707      34.875774342923251
   504   7      6.8189841120655057      22.960666758137673      25.036834295890401
   505   7      3.7961810877050874      11.166191039501644      34.381214070712986
   506   7       3.796746085292571      23.501581460785015      25.531445866072477
   507   7      5.9248423631546148      11.147716273738691      25.644141341258095
   508   7      1.6681972995027012      23.483109577817906      34.268605525904164
   509   7      2.3965535224355854      13.185466346318274      24.868720483543623
   510   7      5.1962568214984692     0.84991903137777636         35.044030972087
   511   7    -0.15694417758611889      9.8295841809892988      30.585170393076364
   512   7      7.7499940944838324      22.165030516620028      29.327476826684205
   513   7      3.8038769021796979      9.9521130351731291      34.572099595713851
   514   7      3.7889982176516872      22.287476142064598      25.340717949781364
   515   7      4.3696376788814462      13.803950557584743      30.340033778821379
   516   7      3.2233603143603817      1.4686485616657401       29.57258485936083
   517   7      1.1049324247200136      13.043522886035616      32.006030311176701
   518   7      6.4880633394236504     0.70823177535944326      27.906579803472507
   519   7      6.3177302575515046       11.17443526817164      32.444998953562468
   520   7      1.2753379476989608      23.509893419893451      27.467669015364148
   521   7     0.51869871493469755      9.4398374789000439      27.262260410182638
   522   7      7.0741134783275417      21.775123620351689       32.65046453037796
   523   7     0.89020029750845642      10.891262641246136      33.703784724174533
   524   7      6.7027351525335064      23.226616882547873      26.208829323333983
   525   7    -0.51767127029104409      12.748502255849623      25.701825610312387
   526   7      8.1104684257484152     0.41318285792323733      34.210953796064771
   527   7      5.6446234049681179      10.263664093851254      28.745078376732561
   528   7      1.9484430217992899      22.599192457254837      31.167481250907461
   529   7      1.8521476642462356      13.861688726122969      35.870742921496628
   530   7      5.7406948063832548       1.526124467644816      24.041986247250936
   531   7    -0.17084799608027013      11.055995507903249      30.490477617074426
   532   7      7.7638425159209836      23.391462361837807      29.422204375809205
   533   7      3.1098158873141273      10.367489897854041      31.544933267083003
   534   7      4.4832190387398905      22.702895485640489      28.367713305018647
   535   7       8.145644765416483      13.867117020296531      25.225721672195384
   536   7    -0.55276271718137837      1.5317776176260125      34.687079986881727
   537   7      4.8901818695947865      14.546224919192241       35.54076565172263
   538   7      2.7026582464001843      2.2108181570708196      24.371901959376601
   539   7      5.6626581500433799      11.472022938833959      28.523615617037816
   540   7      1.9302217067105054      23.807539056774505      31.388997704473105
   541   7      2.7102039623458154      11.058253037603986      29.287019675007151
   542   7      4.8825839642920403      23.393553517380031      30.625698710764588
   543   7       4.870946881122916      13.622970552595124       26.99392292705889
   544   7      2.7220461867429702      1.2876342146913424      32.918826674737502
   545   7      7.2960102740291397       14.48829548922628      33.499781283801099
   546   7     0.29703046971595581      2.1529796879064196      26.412903746112868
   547   7      3.9676313257930556      13.304448719558575      32.646780233239539
   548   7      3.6252544510802176     0.96899970930864998      27.265848150440345
   549   7      3.0787272635536835      11.001278494067611       26.06363224163799
   550   7      4.5141489897641431      23.336561490571292      33.849079807106463
   551   7     0.33876167131137092      10.651218175126088      27.224829461612394
   552   7      7.2541888573586828      22.986487067726557      32.687929897177661
   553   7      2.1215621609474162      13.402855470945598      28.318387685637639
   554   7      5.4713929496253728      1.0676836370623417      31.594267775878066
   555   7      5.0291866411437036      13.331447552658377       35.68456566937094
   556   7      2.5637059078386795     0.99604047808493967      24.228091574139892
   557   7      3.3886117169621341      9.8154945920822882      26.145633686124061
   558   7      4.2042344895451169      22.150780686098887      33.767097129537632
   559   7      6.4649678279133704      10.867035451010793      24.585012727847765
   560   7      1.1279871539805046      23.202369836009655      35.327687186059563
   561   7      4.4338315562501887      18.156997897878124      30.198534824044291
   562   7      3.1590798975923331      5.8215525601587963      29.714129736704269
   563   7      7.5014197435454575       6.358199125845684      35.834065230553222
   564   7    0.091489166553471613      18.693639946343517      24.078408883202766
   565   7      4.9694040126167032      14.842018694049365      26.938697988928222
   566   7      2.6236430669586541      2.5066831859811973      32.974094266473514
   567   7      7.3299346510683918      13.267121387925366       33.64568957826657
   568   7     0.26301631475652321      0.9318192347236558      26.266868920129518
   569   7      1.1882575437161398      14.264537538119555      31.884811940033348
   570   7      6.4047042380842072      1.9292361460699079      28.027831317875119
   571   7      2.9206528049351137      10.705285579883911      30.435137866799195
   572   7      4.6722362453750872      23.040672907373054      29.477545800442748
   573   7      6.1690283495180802      9.9550237452513315      32.401400739163861
   574   7      1.4239176059198537      22.290467361665808      27.511173156499073
   575   7    -0.14227516391788259      8.6640921647673643      30.666232466172914
   576   7       7.735342242173556      20.999517869013861      29.246489387301953
   577   7      1.8596825166786755      14.471619313086363      27.781493974259554
   578   7      5.7332671736921537      2.1364320612183954       32.13121037010923
   579   7      1.5760005087217241      14.526414475799095      34.949221625096172
   580   7      6.0169552822190706      2.1908807030124691      24.963446740251069
   581   7      5.9871902470592406       8.803441947621188       32.34578269614066
   582   7      1.6055190437565339      21.138847622471669      27.566663222639818
   583   7      3.7109259625653426      8.6986446845332761      26.240091163037157
   584   7      3.8818619172466118      21.033934138998756      33.672769155363646
   585   7      0.6639915822138247      8.2767719467432723      27.291204852164249
   586   7       6.928672461863294      20.612072866913788      32.621455284631935
   587   7      3.8253930462833106      8.8077890002828418      34.809564292904142
   588   7      3.7675331838398414      21.143117151529864        25.1034451756551
   589   7      6.6377068375668093      10.631316752533447      35.498212392513608
   590   7     0.95503402346707023      22.966643234173336      24.414390897723958
   591   7      1.6074335933242045      15.493088015014765      27.273208460835871
   592   7      5.9853564443938598      3.1579918363847641      32.639413476340181
   593   7      5.6465682020586616      9.1179647807888067      28.977412747765406
   594   7      1.9465915558779965      21.453476878156259      30.935231565923281
   595   7      7.1940745613849382      13.952763822825466      30.557065436675302
   596   7     0.39894088888138568      1.6176705500844093      29.355684326136608
   597   7      4.7709094006296056      15.699131466681662      35.407376314471861
   598   7      2.8219074937102224      3.3637288188071022      24.505254065608327
   599   7     0.86499612999682762      10.325096247245423      24.028627970414149
   600   7      6.7278173193748074      22.660457849735462      35.883971790227235
   601   7      1.2617849496795392       15.41868757004422      31.730538555105014
   602   7      6.3312034928404577      3.0833969398663568      28.182104552741144
   603   7      7.2737429262700957      15.647828031338125      33.378005682476235
   604   7     0.31935787907138513      3.3124904349695226        26.5348454876274
   605   6      0.2548585637788563      5.8150412878124209      24.377224252507162
   606   6      7.3380332631144043      18.150452435831994      35.535315629159257
   607   1      0.1034097475314818       5.639951050986757      25.445008217813932
   608   1      7.4894616785801755      17.975534783730716      34.467509830596541
   609   1     0.15511167764372646       4.835709788237379      35.897791493019028
   610   1      7.4378432688151719      17.171088793727982      24.014706158030297
   611   7      7.9532636746706595      14.924144040106379      24.770892899758994
   612   7    -0.36036427984147013      2.5888013808335013      35.141913632724915
   613   6      1.9129104038375517      18.153981973816407      29.728990531251171
   614   6      5.6800446833779503      5.8183803638041232       30.18325190140304
   615   1      1.9451227368411417      19.124366060979252      29.224675206630774
   616   1      5.6478945800961862      6.7889213802253163       30.68729539170414
   617   1      1.5743703351842353      18.303508766337657      30.758508763263432
   618   1      6.0184045904223735      5.9675278420744435      29.153618452639616
   619   1      1.1601800515637846      17.538666737986517      29.222548031985276
   620   1      6.4328368150915258       5.203158152801878      30.689725495727824
   621   6        1.45204843224452      6.7151752012973667       24.13359803585524
   622   6      6.1409050775785801      19.050577061043505      35.778999019624791
   623   1      1.5092589129915182       6.735151527756468      35.065531369460089
   624   1      6.0838056815299577      19.070745024059836      24.847072444191046
   625   1      2.2916843349866918      6.3102711380802523      24.708409998332012
   626   1       5.301168601900291      18.645638671904575      35.204383399873343
   627   1       1.295141170788614      7.7432327691505662      24.471604311786404
   628   1      6.2977976903680064       20.07853904034269      35.440772427904804
   629   6      4.6535485145685325       19.45437069562054      29.421410807137558
   630   6      2.9394464815258878      7.1189383523099794      30.491327980578681
   631   1      3.8687779785408338      20.143299180227356      29.750644371324885
   632   1      3.7241161992439196      7.8079593435064742      30.162021565451333
   633   1      5.6087194289823703      19.857317013983582      29.769629745461387
   634   1      1.9841962426049602      7.5219468757058259      30.143327372441497
   635   6       4.231123929168727      18.564418191770365      31.651023865862467
   636   6      3.3616810224833777      6.2289667762309149      28.261660327056273
   637   1      3.3586813955466805      19.224296608301113      31.665992271855917
   638   1      4.2339715608427433      6.8890580216619508      28.246657548064633
   639   1      5.0949864040570656      19.180310266618623      31.918492246861192
   640   1      2.4976412795706517      6.8446293322218938      27.994372911539489
   641   6      6.9277468832819888      17.718136612430165      30.679893716631547
   642   6     0.66515564745204947      5.3825508996964428      29.232757471033914
   643   1      7.2605212532349794      18.680333603759411      30.280544684735059
   644   1     0.33206349165933702      6.3444542331415716      29.632454263192272
   645   1       7.701247816083975      16.971433368491873      30.460189340001737
   646   1    -0.10819635770757263      4.6356721396336642      29.452337124703806
   647   1      6.8601074920609282      17.791978415363342      31.768318523808432
   648   1     0.73294628891841351      5.4568244066751976      28.144361406284887
   649   7      5.1031221355176157      16.004078957677098      26.843360389258422
   650   7      2.4900270405048843      3.6687601341871758      33.069442551146672
   651   6       3.226524392528975      17.397860820240187      29.657310317840896
   652   6      4.3663909067374966      5.0623684971672516      30.255282153539934
   653   1      3.4768354387966838      17.131174135553241      28.626223354994156
   654   1      4.1163360081477034      4.7957782978546328      31.286469121615717
   655   1      3.1686444794853319      16.463751590042879      30.222764918588581
   656   1      4.4241048221759893      4.1281982149447334      29.689902012578766
   657   6      5.6369828011794176      17.224058484940198      30.052652071008055
   658   6      1.9559191293147233      4.8886291949181357      29.860031352727379
   659   1      5.3376462149124526      16.265743407379603      30.489490752866875
   660   1      2.2552240713789375      3.9303133433968256      29.423213090938802
   661   1      5.7566585216430211      17.053060995391068       28.97841138501796
   662   1      1.8361473557434989      4.7177302510383994      30.934285151115603
   663   6      5.1440254125345035      5.5563590381315855      35.271511715140448
   664   6       2.448815838414804      17.891759831047121      24.641163332249171
   665   1      5.1561017619128773      5.6457528787743385      34.181045324583692
   666   1      2.4363685843191796      17.981093610768429      25.731631304012623
   667   1      4.7428830157395314      6.4850086965123728      35.688707692699055
   668   1      2.8500311430110417        18.8203936328023      24.224049689329377
   669   1      4.4454485337213088      4.7491306457133238      35.522341893662052
   670   1      3.1473441835201399      17.084406521657112      24.390533345539474
   671   6      6.5125731690519713      5.1973067909990647      35.819286524596841
   672   6      1.0803298360397031      17.532753297202717      24.093196199043227
   673   1       6.707058944909126      4.8212400328999223      24.862940478806863
   674   1     0.88593952827309552      17.156677701708833      35.049532148043937
   675   1      6.9727314007567367      4.4051990215608514      35.224142806656232
   676   1     0.62023193431912826      16.740665101097083      24.688418366775625
   677   6      4.0649607359083513      17.406115437383285       32.61479456952452
   678   6      3.5279146543800373      5.0707361932031754      27.297901543580561
   679   1      3.1765340657778722      16.801098457719124      32.409100918942904
   680   1      4.4165292873698014      4.4659752043824481        27.5033585769824
   681   1      3.9464276681989068      17.823526121220549      33.620993932397937
   682   1      3.6462433765084992      5.4882233757567933      26.291758245428852
   683   1      4.9430976511258127      16.754174612696524      32.649984295850878
   684   1      2.6499646703705881      4.4185593352531827      27.262757781460738
   685   6      7.6599723351600053      6.9503331200564276      34.443560635932911
   686   6   -0.067008985464542647      19.285906022624101      25.468862670093142
   687   1    -0.48202541273007515      7.7981821141425023      34.546613616795192
   688   1      8.0748659375547174      20.133634369117758      25.365672890974121
   689   1      6.6869903494276679      7.3642207812651685      34.163646104318062
   690   1     0.90601138344967747      19.699776009461164      25.748707142378194
   691   6     -0.6809558915463314       5.965943578874108      33.394326637576874
   692   6      8.2739927582429136      18.301606535959937      26.518195409566385
   693   1    -0.51106181290295982      6.5320192545423508      32.469526796397723
   694   1      8.1038910932164256      18.867676725044102      27.442966163728745
   695   1      7.4056336430773939      5.1871049620097427      33.181995232020867
   696   1     0.18753005475324735      17.522891602786267      26.730491758784179
   697   1     0.25952697704643912      5.4790151631534005       33.67300743698889
   698   1      7.3336613882197392      17.814410485259106      26.239521420901941
   699   6      4.6383611820536119      19.308466585677252      27.911366557397464
   700   6      2.9548692931191027      6.9729655180714776      32.001432620588048
   701   1      3.6261019426899761      19.162798180880852        27.5236011837838
   702   1      3.9671279570847862      6.8268671713730971      32.389135151745521
   703   1      5.2718262858661191      18.492595972829818      27.557372826066985
   704   1      2.3211134967652534      6.1572489972820854      32.355356753837938
   705   1      5.0169826459031626      20.241570642150119      27.480071079196378
   706   1      2.5766455938826907      7.9061557159024183      32.432941673517099
   707   6      7.2532520728247007      7.4831764737101922      24.762463233022583
   708   6     0.33972366678741395      19.818589304264115      35.149974534639327
   709   1      8.0985484369211314      8.1670167744207252      24.883258225648742
   710   1    -0.50553776964322872      20.502438745466399      35.029122870274065
   711   1      6.4773024320921744      8.0164373602538213      24.204186951034082
   712   1      1.1156723691849915      20.351869042521386      35.708239366647561
   713   6      6.7170220809596115      7.0164749865971094      26.102885063155334
   714   6     0.87588950890647865      19.351817399404336      33.809561819114244
   715   1      5.7576739962176511      6.5043061648631779      25.992133859936427
   716   1      1.8352398969707024      18.839662679404082      33.920323509498012
   717   1      6.5472714806436736      7.8959542030971308      26.734866673054466
   718   1      1.0456091659735227      20.231220145326894       33.17745114460363
   719   1      7.4131713905725585      6.3621883105350658      26.636266154754029
   720   1     0.17963803635680609      18.697490251765089      33.276366560482742
   721  29      4.7636015113181944      37.065201425469574      1.2156974010452735
   722  29      3.8156325146570791      24.729869880138683      10.766810207337304
   723  29      1.7048600731767265      36.373371527451283      1.7047931139663628
   724  29      6.8742245487506901       48.70871927762299      10.277710443304878
   725  29      6.0781962080272729      36.907577478116842      10.073406194720627
   726  29      2.5010270481463359      49.243024453522139      1.9091447428815596
   727  29      7.4485463599336539      36.802204652637734       3.128665912857663
   728  29      1.1305608054425356      49.137616702664289      8.8539647392064484
   729  29       8.581833748320534      36.797974223478427      8.1664424194667404
   730  29  -0.0024494209767065909      49.133545155102127      3.8163140616331384
   731  29      2.9630104615633082      36.670609960498467      9.1335681824673802
   732  29      5.6161995012978432      49.005939349285214      2.8491092749947078
   733  29      1.3326910290004899      36.623137012679578       4.970536083388847
   734  29       7.246558930369007      48.958498016526775      7.0121421190709086
   735  29      4.4467836513953447      37.266919385657452      4.5614794421595377
   736  29      4.1324030263847957      24.931574917311465      7.4209856294636376
   737   7      8.5339939982822575      37.833300434293669      4.4991808575677226
   738   7    0.045338243311801141      25.498041772574297      7.4834254447426245
   739   7      8.0557472303429485       38.25108551662867      5.5450109677624866
   740   7     0.52353740164016582      25.915863355694295      6.4376018877281602
   741   7      4.6491904420764492      38.203234711069726      7.5049338576405642
   742   7      3.9299674795495085      25.867874435169149      4.4775729669830495
   743   7      1.2669739905569417      35.296090772411048      10.910718831977039
   744   7      7.3121053633019946      47.631439256999016      1.0717787849441902
   745   7      4.2893023389415763       35.83696353836298      10.416158559766773
   746   7      4.2898673365290598      48.172353959646358       1.566390355126267
   747   7      6.4179636143911036      35.818488772600027       1.679085830311885
   748   7      2.1613185507391899      48.153882076679245      10.303550014957949
   749   7      2.8896747736720743      37.856238845179611     0.90366497259741219
   750   7      5.6893780727349581      25.520691530239116      11.078975461140789
   751   7     0.33617707365036981       34.50035667985064      6.6201148821301521
   752   7      8.2431153457203212      46.835803015481368      5.3624213157379943
   753   7      4.2969981534161867      34.622885534034467      10.607044084767642
   754   7      4.2821194688881761      46.958248640925937      1.3756624388351535
   755   7       4.862758930117935      38.474723056446081       6.374978267875167
   756   7      3.7164815655968702      26.139421060527077      5.6075293484146211
   757   7      1.5980536759565023      37.714295384896957      8.0409748002304884
   758   7      6.9811845906601393      25.379004274220783      3.9415242925262959
   759   7      6.8108515087879935      35.845207767032974      8.4799434426162552
   760   7      1.7684591989354495      48.180665918754791      3.5026135044179361
   761   7      1.0118199661711862      34.110609977761385      3.2972048992364256
   762   7      7.5672347295640305      46.445896119213032      8.6854090194317504
   763   7      1.3833215487449451      35.562035140107476      9.7387292132283196
   764   7      7.1958564037699952      47.897389381409212      2.2437738123877731
   765   7   -0.024550019054555366      37.419274754710962      1.7367700993661772
   766   7      8.6035896769849032      25.083955356784575      10.245898285118564
   767   7      6.1377446562046067      34.934436592712593      4.7800228657863491
   768   7      2.4415642730357785      47.269964956116176      7.2024257399612486
   769   7      2.3452689154827242      38.532461224984303      11.905687410550415
   770   7      6.2338160576197437      26.196896966506152    0.076930736304725078
   771   7     0.32227325515621857      35.726768006764587      6.5254221061282127
   772   7      8.2569637671574725      48.062234860699149      5.4571488648629929
   773   7      3.6029371385506161      35.038262396715382      7.5798777561367912
   774   7      4.9763402899763793      47.373667984501829      4.4026577940724367
   775   7      8.6387660166529709      38.537889519157872      1.2606661612491736
   776   7    -0.05964146594488972      26.202550116487352       10.72202447593552
   777   7      5.3833031208312754       39.21699741805358      11.575710140776419
   778   7      3.1957794976366731      26.881590655932158     0.40684644843038786
   779   7      6.1557794012798688      36.142795437695298      4.5585601060916048
   780   7      2.4233429579469941      48.478311555635841      7.4239421935268934
   781   7      3.2033252135823038      35.729025536465322      5.3219641640609412
   782   7      5.3757052155285292      48.064326016241367      6.6606431998183764
   783   7      5.3640681323594048       38.29374305145646      3.0288674161126767
   784   7       3.215167437979459       25.95840671355268      8.9537711637912931
   785   7      7.7891315252656286      39.159067988087614      9.5347257728548875
   786   7     0.79015172095244446      26.823752186767756      2.4478482351666573
   787   7      4.4607525770295444      37.975221218419911      8.6817247222933318
   788   7      4.1183757023167065      25.639772208169987      3.3007926394941349
   789   7      3.5718485147901724      35.672050992928945      2.0985767306917804
   790   7       5.007270241000632      48.007333989432631      9.8840242961602485
   791   7     0.83188292254785956      35.321990673987429       3.259773950666184
   792   7      7.7473101085951717      47.657259566587896      8.7228743862314513
   793   7      2.6146834121839051      38.073627969806935      4.3533321746914284
   794   7      5.9645142008618617      25.738456135923681      7.6292122649318568
   795   7      5.5223078923801925      38.002220051519714      11.719510158424725
   796   7      3.0568271590751683      25.666812976946279     0.26303606319368061
   797   7       3.881732968198623      34.486267090943628      2.1805781751778497
   798   7      4.6973557407816058      46.821553184960223       9.802041618591419
   799   7      6.9580890791498593      35.537807949872132     0.61995721690155225
   800   7      1.6211084052169933      47.873142334870991      11.362631675113349
   801   7      4.9269528074866775      42.827770396739467      6.2334793130980799
   802   7      3.6522011488288215      30.492325059020136      5.7490742257580587
   803   7      7.9945409947819464      31.028971624707022      11.869009719607009
   804   7     0.58461041778996026      43.364412445204856     0.11335337225655616
   805   7       5.462525263853192      39.512791192910704      2.9736424779820125
   806   7       3.116764318195143      27.177455684842535      9.0090387555273015
   807   7      7.8230559023048807      37.937893886786703      9.6806340673203568
   808   7     0.75613756599301185      25.602591733584994      2.3018134091833065
   809   7      1.6813787949526284      38.935310036980894      7.9197564290871378
   810   7      6.8978254893206961      26.600008644931247      4.0627758069289097
   811   7      3.4137740561716021      35.376058078745245      6.4700823558529832
   812   7      5.1653574966115761       47.71144540623439      5.5124902894965349
   813   7      6.6621496007545691      34.625796244112671      8.4363452282176503
   814   7      1.9170388571563424      46.961239860527144       3.546117645552862
   815   7     0.35084608731860611        33.3348646636287      6.7011769552267015
   816   7      8.2284634934100449      45.670290367875197      5.2814338763557416
   817   7      2.3528037679151641      39.142391811947704      3.8164384633133417
   818   7      6.2263884249286425      26.807204560079732      8.1661548591630222
   819   7      2.0691217599582128      39.197186974660433      10.984166114149959
   820   7      6.5100765334555595      26.861653201873807     0.99839122930485635
   821   7      6.4803114982957295      33.474214446482527      8.3807271851944467
   822   7      2.0986402949930225      45.809620121333012      3.6016077116936072
   823   7      4.2040472138018314      33.369417183394617      2.2750356520909465
   824   7      4.3749831684831006      45.704706637860099       9.707713644417435
   825   7      1.1571128334503133      32.947544445604606      3.3261493412180396
   826   7      7.4217937130997829      45.282845365775131      8.6563997736857257
   827   7      4.3185142975197994      33.478561499144178      10.844508781957927
   828   7      4.2606544350763302      45.813889650391204      1.1383896647088887
   829   7      7.1308280888032982      35.302089251394783      11.533156881567393
   830   7      1.4481552747035589      47.637415733034672     0.44933538677774715
   831   7      2.1005548445606932      40.163860513876102        3.30815294988966
   832   7      6.4784776956303487      27.828764335246102      8.6743579653939733
   833   7      6.1396894532951505      33.788737279650142      5.0123572368191969
   834   7      2.4397128071144851      46.124249377017598      6.9701760549770704
   835   7       7.687195812621427        38.6235363216868      6.5920099257290907
   836   7     0.89206214011787432      26.288443048945748      5.3906288151903956
   837   7      5.2640306518660944      40.369903965543003      11.442320803525647
   838   7      3.3150287449467108       28.03450131766844     0.54019855466211697
   839   7      1.3581173812333163      34.995868746106758    0.063572459467938755
   840   7      7.2209385706112963      47.331230348596804      11.918916279281023
   841   7      1.7549062009160279      40.089460068905559      7.7654830441588034
   842   7      6.8243247440769466      27.754169438727693      4.2170490417949322
   843   7      7.7668641775065845      40.318600530199461      9.4129501715300243
   844   7     0.81247913030787378      27.983262933830861      2.5697899766811876
   845   6     0.74797981501534494      30.485813786673759     0.41216874156095079
   846   6      7.8311545143508932      42.821224934693333      11.570260118213042
   847   1     0.59653099876797044      30.310723549848095      1.4799527068677203
   848   1      7.9825829298166644      42.646307282592055      10.502454319650329
   849   1     0.64823292888021511      29.506482287098716      11.932735982072813
   850   1      7.9309645200516607      41.841861292589321    0.049650647084087035
   851   7      8.4463849259071484      39.594916538967716     0.80583738881278266
   852   7     0.13275697139501857      27.259573879694841      11.176858121778706
   853   6      2.4060316550740404      42.824754472677746      5.7639350203049595
   854   6      6.1731659346144392      30.489152862665463      6.2181963904568294
   855   1      2.4382439880776303      43.795138559840595      5.2596196956845622
   856   1       6.141015831332675      31.459693879086654      6.7222398807579298
   857   1      2.0674915864207239      42.974281265198996        6.79345325231722
   858   1      6.5115258416588624      30.638300340935782      5.1885629416934043
   859   1      1.6533013028002732      42.209439236847857      5.2574925210390653
   860   1      6.9259580663280147      29.873930651663215       6.724669984781614
   861   6      1.9451696834810086      31.385947700158706     0.16854252490902921
   862   6      6.6340263288150689      43.721349559904844      11.813943508678584
   863   1      2.0023801642280068      31.405924026617807       11.10047585851388
   864   1      6.5769269327664466      43.741517522921171      0.8820169332448351
   865   1      2.7848055862231802      30.981043636941592     0.74335448738580023
   866   1      5.7942898531367799      43.316411170765917       11.23932788892713
   867   1      1.7882624220251027      32.414005268011906     0.50654880084019216
   868   1      6.7909189416044953      44.749311539204029      11.475716916958596
   869   6      5.1466697658050213      44.125143194481879      5.4563552961913473
   870   6      3.4325677327623767      31.789710851171318      6.5262724696324712
   871   1      4.3618992297773227      44.814071679088698      5.7855888603786729
   872   1      4.2172374504804084      32.478731842367814      6.1969660545051228
   873   1      6.1018406802188592      44.528089512844922      5.8045742345151758
   874   1      2.4773174938414488      32.192719374567162      6.1782718614952854
   875   6      4.7242451804052159      43.235190690631704      7.6859683549162563
   876   6      3.8548022737198666      30.899739275092251      4.2966048161100616
   877   1       3.851802646783169      43.895069107162456      7.7009367609097064
   878   1      4.7270928120792322      31.559830520523288      4.2816020371184234
   879   1      5.5881076552935545      43.851082765479958      7.9534367359149813
   880   1      2.9907625308071402      31.515401831083231      4.0293174005932784
   881   6      7.4208681345184777      42.388909111291504      6.7148382056853375
   882   6      1.1582768986885381      30.053323398557779      5.2677019600877015
   883   1      7.7536425044714683      43.351106102620747      6.3154891737888477
   884   1     0.82518474289582566      31.015226732002908      5.6673987522460632
   885   1      8.1943690673204639      41.642205867353212      6.4951338290555247
   886   1     0.38492489352891607      29.306444638495002      5.4872816137575953
   887   1       7.353228743297417      42.462750914224685      7.8032630128622218
   888   1      1.2260675401549022      30.127596905536535      4.1793058953386746
   889   7      5.5962433867541046      40.674851456538434      2.8783048783122096
   890   7      2.9831482917413727      28.339532633048513      9.1043870402004607
   891   6      3.7196456437654635      42.068633319101522      5.6922548068946845
   892   6      4.8595121579739855      29.733140996028588      6.2902266425937228
   893   1      3.9699566900331722      41.801946634414577      4.6611678440479443
   894   1      4.6094572593841923      29.466550796715971      7.3214136106695067
   895   1      3.6617657307218203      41.134524088904215       6.257709407642368
   896   1      4.9172260734124782      28.798970713806071      5.7248465016325545
   897   6      6.1301040524159065       41.89483098380154      6.0875965600618427
   898   6       2.449040380551212      29.559401693779474      5.8949758417811671
   899   1      5.8307674661489415      40.936515906240942      6.5244352419206626
   900   1      2.7483453226154264      28.601085842258165      5.4581575799925917
   901   1      6.2497797728795099      41.723833494252403      5.0133558740717481
   902   1      2.3292686069799875      29.388502749899736      6.9692296401693898
   903   6      5.6371466637709924      30.227131536992925      11.306456204194236
   904   6      2.9419370896512929      42.562532329908464     0.67610782130296165
   905   1      5.6492230131493661      30.316525377635678       10.21598981363748
   906   1       2.929489835555668      42.651866109629765      1.7665757930664105
   907   1      5.2360042669760203      31.155781195373713      11.723652181752843
   908   1      3.3431523942475305       43.49116613166364     0.25899417838316663
   909   1      4.9385697849577976      29.419903144574661      11.557286382715841
   910   1      3.6404654347566283      41.755179020518455     0.42547783459326416
   911   6      7.0056944202884601      29.868079289860404      11.854231013650629
   912   6      1.5734510872761918      42.203525796064056      0.1281406880970157
   913   1      7.2001801961456149      29.492012531761262     0.89788496786065197
   914   1      1.3790607795095842      41.827450200570169       11.08447663709773
   915   1      7.4658526519932256       29.07597152042219      11.259087295710025
   916   1      1.1133531855556169      41.411437599958418     0.72336285582941362
   917   6      4.5580819871448401      42.076887936244624      8.6497390585783123
   918   6      4.0210359056165261      29.741508692064514      3.3328460326343503
   919   1      3.6696553170143607       41.47187095658046      8.4440454079966951
   920   1      4.9096505386062903      29.136747703243785      3.5383030660361872
   921   1      4.4395489194353956      42.494298620081892      9.6559384214517223
   922   1       4.139364627744988      30.158995874618132      2.3267027344826414
   923   1      5.4362189023623015      41.424947111557863       8.684928784904665
   924   1      3.1430859216070766      29.089331834114521      3.2977022705145274
   925   6      8.1530935863964942      31.621105618917767      10.478505124986702
   926   6     0.42611226577194605      43.956678521485443      1.5038071591469302
   927   1    0.011095838506413536      32.468954613003838      10.581558105848979
   928   1      8.5679871887912054      44.804406867979097      1.4006173800279111
   929   1      7.1801116006641568      32.034993280126507      10.198590593371854
   930   1      1.3991326346861661        44.3705485083225      1.7836516314319844
   931   6    -0.18783464030984279      30.636716077735446       9.429271126630665
   932   6      8.7671140094794016      42.972379034821273      2.5531398986201723
   933   1   -0.017940561666471122      31.202791753403687      8.5044712854515137
   934   1      8.5970123444529136      43.538449223905445      3.4779106527825343
   935   1      7.8987548943138828       29.85787746087108      9.2169397210746542
   936   1       0.680651305989736      42.193664101647606      2.7654362478379682
   937   1     0.75264822828292777      30.149787662014738      9.7079519260426785
   938   1      7.8267826394562281      42.485182984120442      2.2744659099557287
   939   6      5.1314824332901008      43.979239084538591      3.9463110464512514
   940   6      3.4479905443555912      31.643738016932815      8.0363771096418386
   941   1       4.119223193926465      43.833570679742195      3.5585456728375893
   942   1       4.460249208321275      31.497639670234435       8.424079640799313
   943   1       5.764947537102608      43.163368471691157      3.5923173151207748
   944   1      2.8142347480017422      30.828021496143425      8.3903012428917254
   945   1      5.5101038971396514      44.912343141011462      3.5150155682501687
   946   1      3.0697668451191795      32.576928214763754      8.4678861625708883
   947   6      7.7463733240611896      32.153948972571527     0.79740772207637278
   948   6     0.83284491802390259      44.489361803125455      11.184919023693116
   949   1      8.5916696881576193      32.837789273282063     0.91820271470253068
   950   1   -0.012416518406740041      45.173211244327739      11.064067359327856
   951   1      6.9704236833286632      32.687209859115157     0.23913144008786985
   952   1      1.6087936204214801      45.022641541382725      11.743183855701348
   953   6      7.2101433321961004       31.68724748545845      2.1378295522091237
   954   6      1.3690107601429673      44.022589898265679      9.8445063081680342
   955   1      6.2507952474541399      31.175078663724516      2.0270783489902171
   956   1      2.3283611482071911      43.510435178265425      9.9552679985518022
   957   1      7.0403927318801625      32.566726701958473       2.769811162108256
   958   1      1.5387304172100114      44.901992644188233      9.2123956336574171
   959   1      7.9062926418090473      31.032960809396403      2.6712106438078189
   960   1     0.67275928759329473      43.368262750626428      9.3113110495365348
   961  29      4.5170400750164452       37.06519984569028      13.198225156518379
   962  29      3.5690710783553294      24.729868300359392      22.749337962810408
   963  29      1.4582986368749771      36.373369947671989      13.687320869439468
   964  29      6.6276631124489409      48.708717697843703      22.260238198777984
   965  29      5.8316347717255237      36.907575898337548      22.055933950193733
   966  29      2.2544656118445863      49.243022873742845      13.891672498354666
   967  29      7.2019849236319047      36.802203072858447      15.111193668330769
   968  29     0.88399936914078603      49.137615122884995      20.836492494679554
   969  29      8.3352723120187839       36.79797264369914      20.148970174939848
   970  29    -0.24901085727845612      49.133543575322832      15.798841817106243
   971  29      2.7164490252615585       36.67060838071918      21.116095937940486
   972  29       5.369638064996094       49.00593776950592      14.831637030467814
   973  29      1.0861295926987404      36.623135432900284      16.953063838861951
   974  29      6.9999974940672578      48.958496436747488      18.994669874544016
   975  29      4.2002222150935955      37.266917805878165      16.544007197632645
   976  29      3.8858415900830461      24.931573337532175      19.403513384936744
   977   7      8.2874325619805074      37.833298854514375       16.48170861304083
   978   7     -0.2012231929899484      25.498040192795006      19.465953200215729
   979   7      7.8091857940411993      38.251083936849383      17.527538723235594
   980   7     0.27697596533841629      25.915861775915005      18.420129643201264
   981   7         4.4026290057747      38.203233131290439       19.48746161311367
   982   7      3.6834060432477589      25.867872855389859      16.460100722456154
   983   7      1.0204125542551923      35.296089192631754      22.893246587450143
   984   7      7.0655439270002454      47.631437677219722      13.054306540417295
   985   7      4.0427409026398271      35.836961958583693      22.398686315239878
   986   7      4.0433059002273106      48.172352379867064      13.548918110599372
   987   7      6.1714021780893544       35.81848719282074      13.661613585784991
   988   7      1.9147571144374405      48.153880496899959      22.286077770431056
   989   7      2.6431133373703246      37.856237265400324      12.886192728070517
   990   7      5.4428166364332089      25.520689950459825      23.061503216613893
   991   7    0.089615637348620242      34.500355100071346      18.602642637603257
   992   7       7.996553909418572      46.835801435702081      17.344949071211101
   993   7      4.0504367171144375      34.622883954255173      22.589571840240747
   994   7      4.0355580325864269       46.95824706114665      13.358190194308259
   995   7      4.6161974938161858      38.474721476666787      18.357506023348272
   996   7      3.4699201292951205      26.139419480747787      17.590057103887727
   997   7      1.3514922396547528      37.714293805117663      20.023502555703594
   998   7      6.7346231543583901      25.379002694441489      15.924052047999401
   999   7      6.5642900724862443      35.845206187253687      20.462471198089361
  1000   7         1.5218977626337      48.180664338975504      15.485141259891041
  1001   7     0.76525852986943665      34.110608397982091       15.27973265470953
  1002   7      7.3206732932622813      46.445894539433738      20.667936774904856
  1003   7      1.1367601124431956      35.562033560328182      21.721256968701425
  1004   7       6.949294967468246      47.897387801629918       14.22630156786088
  1005   7    -0.27111145535630493      37.419273174931668      13.719297854839283
  1006   7      8.3570282406831531      25.083953777005284      22.228426040591671
  1007   7      5.8911832199028575      34.934435012933299      16.762550621259454
  1008   7      2.1950028367340289      47.269963376336889      19.184953495434353
  1009   7      2.0987074791809746      38.532459645205016      23.888215166023521
  1010   7      5.9872546213179945      26.196895386726865       12.05945849177783
  1011   7     0.07571181885446901      35.726766426985293      18.507949861601318
  1012   7      8.0104023308557224      48.062233280919855      17.439676620336098
  1013   7      3.3563757022488665      35.038260816936088      19.562405511609896
  1014   7      4.7297788536746301      47.373666404722542      16.385185549545543
  1015   7      8.3922045803512209      38.537887939378578       13.24319391672228
  1016   7    -0.30620290224663926      26.202548536708061      22.704552231408627
  1017   7      5.1367416845295262      39.216995838274286      23.558237896249523
  1018   7      2.9492180613349235      26.881589076152867      12.389374203903493
  1019   7      5.9092179649781196      36.142793857916004      16.541087861564712
  1020   7      2.1767815216452444      48.478309975856554      19.406469948999998
  1021   7      2.9567637772805542      35.729023956686035      17.304491919534048
  1022   7        5.12914377922678       48.06432443646208      18.643170955291481
  1023   7      5.1175066960576556      38.293741471677173      15.011395171585782
  1024   7      2.9686060016777094       25.95840513377339      20.936298919264399
  1025   7      7.5425700889638794      39.159066408308327      21.517253528327991
  1026   7     0.54359028465069492      26.823750606988469      14.430375990639764
  1027   7      4.2141911407277952      37.975219638640624      20.664252477766439
  1028   7      3.8718142660149568      25.639770628390696      15.283320394967241
  1029   7      3.3252870784884228      35.672049413149658      14.081104486164886
  1030   7      4.7607088046988828      48.007332409653344      21.866552051633356
  1031   7     0.58532148624611002      35.321989094208135       15.24230170613929
  1032   7      7.5007486722934225      47.657257986808602      20.705402141704557
  1033   7      2.3681219758821554      38.073626390027641      16.335859930164535
  1034   7      5.7179527645601125       25.73845455614439      19.611740020404962
  1035   7      5.2757464560784433       38.00221847174042      23.702037913897833
  1036   7      2.8102657227734187      25.666811397166988      12.245563818666787
  1037   7      3.6351715318968734      34.486265511164333      14.163105930650955
  1038   7      4.4507943044798566      46.821551605180936      21.784569374064525
  1039   7      6.7115276428481101      35.537806370092838      12.602484972374658
  1040   7      1.3745469689152439      47.873140755091704      23.345159430586456
  1041   7      4.6803913711849283      42.827768816960173      18.216007068571187
  1042   7      3.4056397125270719      30.492323479240845      17.731601981231165
  1043   7      7.7479795584801971      31.028970044927732      23.851537475080114
  1044   7     0.33804898148821072      43.364410865425569      12.095881127729662
  1045   7      5.2159638275514428       39.51278961313141      14.956170233455119
  1046   7      2.8702028818933933      27.177454105063244      20.991566511000407
  1047   7      7.5764944660031315      37.937892307007417      21.663161822793462
  1048   7     0.50957612969126231      25.602590153805703      14.284341164656412
  1049   7       1.434817358650879        38.9353084572016      19.902284184560244
  1050   7      6.6512640530189469      26.600007065151956      16.045303562402015
  1051   7      3.1672126198698525      35.376056498965958      18.452610111326088
  1052   7      4.9187960603098269      47.711443826455103       17.49501804496964
  1053   7      6.4155881644528199      34.625794664333377      20.418872983690754
  1054   7      1.6704774208545929      46.961238280747857      15.528645401025967
  1055   7     0.10428465101685655      33.334863083849413      18.683704710699807
  1056   7      7.9819020571082957       45.67028878809591      17.263961631828849
  1057   7      2.1062423316134145       39.14239023216841      15.798966218786447
  1058   7      5.9798269886268933      26.807202980300442       20.14868261463613
  1059   7      1.8225603236564634      39.197185394881146      22.966693869623064
  1060   7      6.2635150971538103      26.861651622094517      12.980918984777961
  1061   7      6.2337500619939803      33.474212866703233      20.363254940667552
  1062   7      1.8520788586912731      45.809618541553718      15.584135467166712
  1063   7      3.9574857775000818      33.369415603615323      14.257563407564053
  1064   7      4.1284217321813514      45.704705058080805      21.690241399890539
  1065   7     0.91055139714856381      32.947542865825319      15.308677096691145
  1066   7      7.1752322767980337      45.282843785995837      20.638927529158831
  1067   7      4.0719528612180502      33.478559919364891      22.827036537431034
  1068   7       4.014092998774581       45.81388807061191      13.120917420181994
  1069   7       6.884266652501549      35.302087671615496      23.515684637040501
  1070   7      1.2015938384018094      47.637414153255385      12.431863142250853
  1071   7      1.8539934082589438      40.163858934096808      15.290680705362766
  1072   7      6.2319162593285995      27.828762755466812      20.656885720867081
  1073   7      5.8931280169934013      33.788735699870855      16.994884992292302
  1074   7      2.1931513708127355      46.124247797238311      18.952703810450174
  1075   7      7.4406343763196778      38.623534741907513      18.574537681202195
  1076   7     0.64550070381612479      26.288441469166457        17.3731565706635
  1077   7      5.0174692155643452      40.369902385763709      23.424848558998754
  1078   7      3.0684673086449612      28.034499737889149      12.522726310135223
  1079   7      1.1115559449315668      34.995867166327471      12.046100214941044
  1080   7      6.9743771343095471       47.33122876881751      23.901444034754128
  1081   7      1.5083447646142785      40.089458489126265       19.74801079963191
  1082   7      6.5777633077751974      27.754167858948403      16.199576797268037
  1083   7      7.5203027412048353      40.318598950420174      21.395477927003128
  1084   7     0.56591769400612424      27.983261354051571      14.552317732154293
  1085   6      0.5014183787135954      30.485812206894469      12.394696497034056
  1086   6       7.584593078049144      42.821223354914039       23.55278787368615
  1087   1     0.34996956246622091      30.310721970068805      13.462480462340826
  1088   1      7.7360214935149152      42.646305702812768      22.484982075123433
  1089   1     0.40167149257846557      29.506480707319426      23.915263737545921
  1090   1      7.6844030837499115      41.841859712810034      12.032178402557193
  1091   7      8.1998234896053983      39.594914959188429      12.788365144285889
  1092   7    -0.11380446490673096      27.259572299915547      23.159385877251811
  1093   6      2.1594702187722907      42.824752892898459      17.746462775778063
  1094   6        5.92660449831269      30.489151282886169      18.200724145929936
  1095   1      2.1916825517758807      43.795136980061301      17.242147451157667
  1096   1      5.8944543950309258      31.459692299307363      18.704767636231036
  1097   1      1.8209301501189745      42.974279685419702      18.775981007790325
  1098   1      6.2649644053571132      30.638298761156491      17.171090697166509
  1099   1      1.4067398664985238      42.209437657068563      17.240020276512169
  1100   1      6.6793966300262655      29.873929071883925       18.70719774025472
  1101   6      1.6986082471792592      31.385946120379415      12.151070280382134
  1102   6      6.3874648925133197      43.721347980125557      23.796471264151691
  1103   1      1.7558187279262574      31.405922446838517      23.083003613986985
  1104   1      6.3303654964646974      43.741515943141884       12.86454468871794
  1105   1      2.5382441499214305      30.981042057162298      12.725882242858905
  1106   1      5.5477284168350307      43.316409590986623      23.221855644400236
  1107   1      1.5417009857233532      32.414003688232611      12.489076556313298
  1108   1      6.5443575053027461      44.749309959424735      23.458244672431704
  1109   6      4.9001083295032721      44.125141614702585      17.438883051664455
  1110   6      3.1860062964606271      31.789709271392027      18.508800225105578
  1111   1      4.1153377934755735      44.814070099309404      17.768116615851778
  1112   1      3.9706760141786588       32.47873026258852      18.179493809978229
  1113   1        5.85527924391711      44.528087933065635       17.78710198998828
  1114   1      2.2307560575396992      32.192717794787875       18.16079961696839
  1115   6      4.4776837441034667      43.235189110852417      19.668496110389363
  1116   6       3.608240837418117      30.899737695312965      16.279132571583169
  1117   1      3.6052412104814193      43.895067527383162      19.683464516382813
  1118   1      4.4805313757774829      31.559828940743998      16.264129792591529
  1119   1      5.3415462189918053      43.851081185700671      19.935964491388088
  1120   1      2.7442010945053905      31.515400251303941      16.011845156066386
  1121   6      7.1743066982167285      42.388907531512217      18.697365961158443
  1122   6     0.91171546238678858      30.053321818778493      17.250229715560806
  1123   1      7.5070810681697191       43.35110452284146      18.298016929261955
  1124   1     0.57862330659407613      31.015225152223621      17.649926507719169
  1125   1      7.9478076310187147      41.642204287573918      18.477661584528629
  1126   1      0.1383634572271665      29.306443058715711      17.469809369230703
  1127   1      7.1066673069956678      42.462749334445391      19.785790768335328
  1128   1     0.97950610385315262      30.127595325757245      16.161833650811779
  1129   7      5.3496819504523554      40.674849876759147      14.860832633785314
  1130   7      2.7365868554396231      28.339531053269223      21.086914795673565
  1131   6      3.4730842074637138      42.068631739322235      17.674782562367788
  1132   6      4.6129507216722363      29.733139416249301       18.27275439806683
  1133   1      3.7233952537314225       41.80194505463529      16.643695599521049
  1134   1      4.3628958230824431      29.466549216936681      19.303941366142613
  1135   1      3.4152042944200707      41.134522509124928      18.240237163115474
  1136   1       4.670664637110729       28.79896913402678      17.707374257105659
  1137   6      5.8835426161141573      41.894829404022246      18.070124315534947
  1138   6      2.2024789442494623      29.559400114000184      17.877503597254272
  1139   1      5.5842060298471923      40.936514326461648      18.506962997393767
  1140   1      2.5017838863136768      28.601084262478874      17.440685335465698
  1141   1      6.0032183365777607      41.723831914473116      16.995883629544853
  1142   1      2.0827071706782379      29.388501170120449      18.951757395642495
  1143   6      5.3905852274692432      30.227129957213634      23.288983959667341
  1144   6      2.6953756533495432       42.56253075012917      12.658635576776067
  1145   1      5.4026615768476169      30.316523797856387      22.198517569110585
  1146   1      2.6829283992539184      42.651864529850478      13.749103548539516
  1147   1      4.9894428306742711      31.155779615594419      23.706179937225947
  1148   1      3.0965909579457809      43.491164551884353      12.241521933856273
  1149   1      4.6920083486560484      29.419901564795371      23.539814138188945
  1150   1      3.3939039984548787       41.75517744073916       12.40800559006637
  1151   6      6.7591329839867109      29.868077710081113      23.836758769123733
  1152   6      1.3268896509744423      42.203524216284762      12.110668443570122
  1153   1      6.9536187598438657      29.492010951981971      12.880412723333757
  1154   1      1.1324993432078347      41.827448620790882      23.067004392570837
  1155   1      7.2192912156914764      29.075969940642899      23.241615051183132
  1156   1     0.86679174925386737      41.411436020179131       12.70589061130252
  1157   6      4.3115205508430909      42.076886356465337       20.63226681405142
  1158   6      3.7744744693147765      29.741507112285223      15.315373788107456
  1159   1       3.423093880712611      41.471869376801173      20.426573163469801
  1160   1      4.6630891023045411      29.136746123464498      15.520830821509293
  1161   1      4.1929874831336464      42.494297040302598       21.63846617692483
  1162   1      3.8928031914432384      30.158994294838841      14.309230489955747
  1163   1      5.1896574660605523      41.424945531778576      20.667456540377771
  1164   1      2.8965244853053269      29.089330254335231      15.280230025987633
  1165   6       7.906532150094745      31.621104039138476      22.461032880459808
  1166   6     0.17955082947019649      43.956676941706149      13.486334914620036
  1167   1    -0.23546559779533599      32.468953033224551      22.564085861322084
  1168   1      8.3214257524894553      44.804405288199803      13.383145135501017
  1169   1      6.9335501643624076       32.03499170034722      22.181118348844961
  1170   1      1.1525711983844167      44.370546928543213       13.76617938690509
  1171   6     -0.4343960766115923      30.636714497956156      21.411798882103771
  1172   6      8.5205525731776515      42.972377455041986      14.535667654093277
  1173   1    -0.26450199796822066        31.2027901736244      20.486999040924619
  1174   1      8.3504509081511635      43.538447644126151      15.460438408255641
  1175   1      7.6521934580121336       29.85787588109179       21.19946747654776
  1176   1     0.43408986968798646      42.193662521868319      14.747964003311074
  1177   1     0.50608679198117823      30.149786082235448      21.690479681515782
  1178   1      7.5802212031544789      42.485181404341155      14.256993665428833
  1179   6      4.8849209969883516      43.979237504759297      15.928838801924357
  1180   6      3.2014291080538415      31.643736437153525      20.018904865114944
  1181   1      3.8726617576247153      43.833569099962901      15.541073428310694
  1182   1      4.2136877720195258      31.497638090455144       20.40660739627242
  1183   1      5.5183861008008588      43.163366891911863      15.574845070593881
  1184   1      2.5676733116999926      30.828019916364134      20.372828998364831
  1185   1      5.2635424608379022      44.912341561232168      15.497543323723274
  1186   1      2.8232054088174299      32.576926634984467      20.450413918043992
  1187   6      7.4998118877594404       32.15394739279224      12.779935477549479
  1188   6     0.58628348172215305      44.489360223346168       23.16744677916622
  1189   1      8.3451082518558692      32.837787693502776      12.900730470175636
  1190   1    -0.25897795470848956      45.173209664548452      23.046595114800962
  1191   1       6.723862247026914       32.68720827933587      12.221659195560976
  1192   1      1.3622321841197307      45.022639961603431      23.725711611174454
  1193   6      6.9635818958943512      31.687245905679156       14.12035730768223
  1194   6      1.1224493238412179      44.022588318486385       21.82703406364114
  1195   1      6.0042338111523907      31.175077083945226      14.009606104463323
  1196   1      2.0817997119054414      43.510433598486131      21.937795754024908
  1197   1      6.7938312955784133      32.566725122179179      14.752338917581362
  1198   1      1.2921689809082619      44.901991064408946      21.194923389130523
  1199   1      7.6597312055072981      31.032959229617113      14.653738399280925
  1200   1     0.42619785129154519      43.368261170847134      21.293838805009642
  1201  29      4.2704786387146951      37.065198265910993      25.180752911991483
  1202  29      3.3225096420535802      24.729866720580102      34.731865718283515
  1203  29      1.2117372005732274      36.373368367892702      25.669848624912575
  1204  29      6.3811016761471908      48.708716118064416      34.242765954251091
  1205  29      5.5850733354237736      36.907574318558261       34.03846170566684
  1206  29      2.0079041755428371      49.243021293963551       25.87420025382777
  1207  29      6.9554234873301546      36.802201493079153      27.093721423803874
  1208  29     0.63743793283903649      49.137613543105701      32.819020250152661
  1209  29      8.0887108757170356      36.797971063919846      32.131497930412948
  1210  29    -0.49557229358020566      49.133541995543546      27.781369572579351
  1211  29      2.4698875889598093      36.670606800939893      33.098623693413593
  1212  29      5.1230766286943439      49.005936189726633      26.814164785940918
  1213  29     0.83956815639699078      36.623133853120997      28.935591594335058
  1214  29      6.7534360577655077      48.958494856968201       30.97719763001712
  1215  29      3.9536607787918459      37.266916226098871      28.526534953105749
  1216  29      3.6392801537812969      24.931571757752884      31.386041140409848
  1217   7      8.0408711256787591      37.833297274735088      28.464236368513934
  1218   7    -0.44778462929169793      25.498038613015716      31.448480955688837
  1219   7      7.5626243577394492      38.251082357070089      29.510066478708698
  1220   7    0.030414529036666804      25.915860196135714      30.402657398674371
  1221   7      4.1560675694729499      38.203231551511152      31.469989368586774
  1222   7      3.4368446069460097      25.867871275610568      28.442628477929262
  1223   7     0.77385111795344264       35.29608761285246      34.875774342923251
  1224   7      6.8189824906984953      47.631436097440428      25.036834295890401
  1225   7      3.7961794663380775      35.836960378804399      34.381214070712986
  1226   7       3.796744463925561       48.17235080008777      25.531445866072477
  1227   7      5.9248407417876043      35.818485613041446      25.644141341258095
  1228   7      1.6681956781356908      48.153878917120664      34.268605525904164
  1229   7      2.3965519010685754       37.85623568562103      24.868720483543623
  1230   7      5.1962552001314588      25.520688370680535         35.044030972087
  1231   7    -0.15694579895312927      34.500353520292052      30.585170393076364
  1232   7      7.7499924731168219      46.835799855922787      29.327476826684205
  1233   7      3.8038752808126879      34.622882374475886      34.572099595713851
  1234   7      3.7889965962846772      46.958245481367356      25.340717949781364
  1235   7      4.3696360575144357        38.4747198968875      30.340033778821379
  1236   7      3.2233586929933713      26.139417900968496       29.57258485936083
  1237   7      1.1049308033530032      37.714292225338369      32.006030311176701
  1238   7        6.48806171805664      25.379001114662202      27.906579803472507
  1239   7      6.3177286361844942        35.8452046074744      32.444998953562468
  1240   7      1.2753363263319504       48.18066275919621      27.467669015364148
  1241   7     0.51869709356768712      34.110606818202797      27.262260410182638
  1242   7      7.0741118569605312      46.445892959654444       32.65046453037796
  1243   7     0.89019867614144599      35.562031980548895      33.703784724174533
  1244   7       6.702733531166496      47.897386221850631      26.208829323333983
  1245   7    -0.51767289165805441      37.419271595152381      25.701825610312387
  1246   7      8.1104668043814048      25.083952197225994      34.210953796064771
  1247   7      5.6446217836011074      34.934433433154013      28.745078376732561
  1248   7      1.9484414004322794      47.269961796557595      31.167481250907461
  1249   7      1.8521460428792251      38.532458065425729      35.870742921496628
  1250   7      5.7406931850162444      26.196893806947571      24.041986247250936
  1251   7     -0.1708496174472805      35.726764847206006      30.490477617074426
  1252   7      7.7638408945539732      48.062231701140561      29.422204375809205
  1253   7      3.1098142659471173      35.038259237156794      31.544933267083003
  1254   7        4.48321741737288      47.373664824943248      28.367713305018647
  1255   7      8.1456431440494725      38.537886359599284      25.225721672195384
  1256   7     -0.5527643385483888      26.202546956928771      34.687079986881727
  1257   7      4.8901802482277761      39.216994258494999       35.54076565172263
  1258   7      2.7026566250331743      26.881587496373577      24.371901959376601
  1259   7      5.6626565286763695      36.142792278136717      28.523615617037816
  1260   7       1.930220085343495      48.478308396077267      31.388997704473105
  1261   7       2.710202340978805      35.729022376906741      29.287019675007151
  1262   7      4.8825823429250299      48.064322856682793      30.625698710764588
  1263   7      4.8709452597559055      38.293739891897879       26.99392292705889
  1264   7      2.7220445653759602      25.958403553994099      32.918826674737502
  1265   7      7.2960086526621293       39.15906482852904      33.499781283801099
  1266   7     0.29702884834894544      26.823749027209175      26.412903746112868
  1267   7      3.9676297044260456       37.97521805886133      32.646780233239539
  1268   7      3.6252528297132076      25.639769048611406      27.265848150440345
  1269   7      3.0787256421866736      35.672047833370371       26.06363224163799
  1270   7      4.5141473683971327       48.00733082987405      33.849079807106463
  1271   7     0.33876004994436054      35.321987514428841      27.224829461612394
  1272   7      7.2541872359916724      47.657256407029315      32.687929897177661
  1273   7      2.1215605395804062      38.073624810248354      28.318387685637639
  1274   7      5.4713913282583624        25.7384529763651      31.594267775878066
  1275   7      5.0291850197766932      38.002216891961133       35.68456566937094
  1276   7      2.5637042864716695      25.666809817387698      24.228091574139892
  1277   7      3.3886100955951242      34.486263931385047      26.145633686124061
  1278   7      4.2042328681781065      46.821550025401649      33.767097129537632
  1279   7        6.46496620654636      35.537804790313551      24.585012727847765
  1280   7      1.1279855326134942      47.873139175312417      35.327687186059563
  1281   7      4.4338299348831782      42.827767237180879      30.198534824044291
  1282   7      3.1590782762253227      30.492321899461555      29.714129736704269
  1283   7      7.5014181221784471      31.028968465148441      35.834065230553222
  1284   7    0.091487545186461239      43.364409285646275      24.078408883202766
  1285   7      4.9694023912496927      39.512788033352123      26.938697988928222
  1286   7      2.6236414455916441      27.177452525283954      32.974094266473514
  1287   7      7.3299330297013814      37.937890727228123       33.64568957826657
  1288   7     0.26301469338951283      25.602588574026413      26.266868920129518
  1289   7      1.1882559223491294      38.935306877422313      31.884811940033348
  1290   7      6.4047026167171968      26.600005485372666      28.027831317875119
  1291   7      2.9206511835681033      35.376054919186672      30.435137866799195
  1292   7      4.6722346240080768      47.711442246675816      29.477545800442748
  1293   7      6.1690267281510698       34.62579308455409      32.401400739163861
  1294   7      1.4239159845528433       46.96123670096857      27.511173156499073
  1295   7    -0.14227678528489296      33.334861504070119      30.666232466172914
  1296   7      7.7353406208065456      45.670287208316623      29.246489387301953
  1297   7       1.859680895311665      39.142388652389116      27.781493974259554
  1298   7      5.7332655523251432      26.807201400521151       32.13121037010923
  1299   7      1.5759988873547137      39.197183815101852      34.949221625096172
  1300   7      6.0169536608520602      26.861650042315226      24.963446740251069
  1301   7      5.9871886256922302      33.474211286923946       32.34578269614066
  1302   7      1.6055174223895234      45.809616961774424      27.566663222639818
  1303   7      3.7109243411983326      33.369414023836029      26.240091163037157
  1304   7      3.8818602958796018      45.704703478301511      33.672769155363646
  1305   7     0.66398996084681428      32.947541286046032      27.291204852164249
  1306   7      6.9286708404962836      45.282842206216543      32.621455284631935
  1307   7      3.8253914249163006      33.478558339585597      34.809564292904142
  1308   7      3.7675315624728314      45.813886490832623        25.1034451756551
  1309   7      6.6377052161997989      35.302086091836202      35.498212392513608
  1310   7      0.9550324021000598      47.637412573476098      24.414390897723958
  1311   7      1.6074319719571941      40.163857354317521      27.273208460835871
  1312   7      5.9853548230268494      27.828761175687522      32.639413476340181
  1313   7      5.6465665806916512      33.788734120091561      28.977412747765406
  1314   7      1.9465899345109861      46.124246217459017      30.935231565923281
  1315   7      7.1940729400179277      38.623533162128226      30.557065436675302
  1316   7     0.39893926751437531      26.288439889387167      29.355684326136608
  1317   7      4.7709077792625951      40.369900805984415      35.407376314471861
  1318   7       2.821905872343212      28.034498158109859      24.505254065608327
  1319   7     0.86499450862981719      34.995865586548177      24.028627970414149
  1320   7       6.727815698007797      47.331227189038216      35.883971790227235
  1321   7      1.2617833283125288      40.089456909346978      31.730538555105014
  1322   7      6.3312018714734473      27.754166279169112      28.182104552741144
  1323   7      7.2737413049030852       40.31859737064088      33.378005682476235
  1324   7     0.31935625770437476       27.98325977427228        26.5348454876274
  1325   6     0.25485694241184592      30.485810627115178      24.377224252507162
  1326   6      7.3380316417473939      42.821221775134752      35.535315629159257
  1327   1     0.10340812616447143      30.310720390289514      25.445008217813932
  1328   1      7.4894600572131651      42.646304123033474      34.467509830596541
  1329   1     0.15511005627671609      29.506479127540135      35.897791493019028
  1330   1      7.4378416474481615       41.84185813303074      24.014706158030297
  1331   7      7.9532620533036491      39.594913379409135      24.770892899758994
  1332   7    -0.36036590120848044       27.25957072013626      35.141913632724915
  1333   6      1.9129087824705413      42.824751313119165      29.728990531251171
  1334   6      5.6800430620109399      30.489149703106882       30.18325190140304
  1335   1      1.9451211154741312      43.795135400282007      29.224675206630774
  1336   1      5.6478929587291757      31.459690719528073       30.68729539170414
  1337   1      1.5743687138172249      42.974278105640416      30.758508763263432
  1338   1      6.0184029690553631      30.638297181377201      29.153618452639616
  1339   1      1.1601784301967741      42.209436077289276      29.222548031985276
  1340   1      6.4328351937245154      29.873927492104634      30.689725495727824
  1341   6      1.4520468108775095      31.385944540600125       24.13359803585524
  1342   6      6.1409034562115696      43.721346400346263      35.778999019624791
  1343   1      1.5092572916245077      31.405920867059226      35.065531369460089
  1344   1      6.0838040601629473      43.741514363362597      24.847072444191046
  1345   1      2.2916827136196813      30.981040477383011      24.708409998332012
  1346   1      5.3011669805332806      43.316408011207329      35.204383399873343
  1347   1      1.2951395494216036      32.414002108453325      24.471604311786404
  1348   1       6.297796069000996      44.749308379645448      35.440772427904804
  1349   6       4.653546893201522      44.125140034923298      29.421410807137558
  1350   6      2.9394448601588778      31.789707691612737      30.491327980578681
  1351   1      3.8687763571738238       44.81406851953011      29.750644371324885
  1352   1      3.7241145778769096      32.478728682809233      30.162021565451333
  1353   1      5.6087178076153599      44.528086353286341      29.769629745461387
  1354   1      1.9841946212379498      32.192716215008581      30.143327372441497
  1355   6      4.2311223078017166      43.235187531073123      31.651023865862467
  1356   6      3.3616794011163678       30.89973611553367      28.261660327056273
  1357   1      3.3586797741796701      43.895065947603868      31.665992271855917
  1358   1      4.2339699394757329      31.559827360964707      28.246657548064633
  1359   1      5.0949847826900552      43.851079605921385      31.918492246861192
  1360   1      2.4976396582036413       31.51539867152465      27.994372911539489
  1361   6      6.9277452619149784      42.388905951732923      30.679893716631547
  1362   6     0.66515402608503904      30.053320238999198      29.232757471033914
  1363   1       7.260519631867969      43.351102943062173      30.280544684735059
  1364   1     0.33206187029232664      31.015223572444327      29.632454263192272
  1365   1      7.7012461947169646      41.642202707794631      30.460189340001737
  1366   1    -0.10819797907458301      29.306441478936421      29.452337124703806
  1367   1      6.8601058706939178      42.462747754666097      31.768318523808432
  1368   1     0.73294466755140308      30.127593745977954      28.144361406284887
  1369   7      5.1031205141506053       40.67484829697986      26.843360389258422
  1370   7      2.4900254191378739      28.339529473489932      33.069442551146672
  1371   6      3.2265227711619646      42.068630159542948      29.657310317840896
  1372   6      4.3663892853704862      29.733137836470007      30.255282153539934
  1373   1      3.4768338174296733      41.801943474856003      28.626223354994156
  1374   1       4.116334386780693       29.46654763715739      31.286469121615717
  1375   1      3.1686428581183215      41.134520929345641      30.222764918588581
  1376   1      4.4241032008089789       28.79896755424749      29.689902012578766
  1377   6      5.6369811798124072      41.894827824242952      30.052652071008055
  1378   6      1.9559175079477129      29.559398534220893      29.860031352727379
  1379   1      5.3376445935454422      40.936512746682361      30.489490752866875
  1380   1      2.2552224500119276      28.601082682699584      29.423213090938802
  1381   1      5.7566569002760106       41.72383033469383       28.97841138501796
  1382   1      1.8361457343764884      29.388499590341155      30.934285151115603
  1383   6      5.1440237911674931      30.227128377434344      35.271511715140448
  1384   6       2.448814217047794      42.562529170349876      24.641163332249171
  1385   1      5.1561001405458669      30.316522218077097      34.181045324583692
  1386   1      2.4363669629521691      42.651862950071191      25.731631304012623
  1387   1       4.742881394372521      31.155778035815132      35.688707692699055
  1388   1      2.8500295216440317      43.491162972105059      24.224049689329377
  1389   1      4.4454469123542983       29.41989998501608      35.522341893662052
  1390   1      3.1473425621531295      41.755175860959866      24.390533345539474
  1391   6      6.5125715476849608      29.868076130301823      35.819286524596841
  1392   6      1.0803282146726927      42.203522636505475      24.093196199043227
  1393   1      6.7070573235421156      29.492009372202681      24.862940478806863
  1394   1     0.88593790690608509      41.827447041011595      35.049532148043937
  1395   1      6.9727297793897263      29.075968360863609      35.224142806656232
  1396   1     0.62023031295211783      41.411434440399844      24.688418366775625
  1397   6      4.0649591145413408      42.076884776686043       32.61479456952452
  1398   6      3.5279130330130273      29.741505532505933      27.297901543580561
  1399   1      3.1765324444108618      41.471867797021886      32.409100918942904
  1400   1       4.416527666002791      29.136744543685204        27.5033585769824
  1401   1      3.9464260468318968      42.494295460523304      33.620993932397937
  1402   1      3.6462417551414892      30.158992715059551      26.291758245428852
  1403   1      4.9430960297588022      41.424943951999282      32.649984295850878
  1404   1      2.6499630490035777       29.08932867455594      27.262757781460738
  1405   6      7.6599707137929949      31.621102459359186      34.443560635932911
  1406   6   -0.067010606831553021      43.956675361926855      25.468862670093142
  1407   1    -0.48202703409708553      32.468951453445257      34.546613616795192
  1408   1      8.0748643161877069      44.804403708420516      25.365672890974121
  1409   1      6.6869887280606575      32.034990120567926      34.163646104318062
  1410   1     0.90600976208266704      44.370545348763926      25.748707142378194
  1411   6    -0.68095751291334183      30.636712918176865      33.394326637576874
  1412   6      8.2739911368759032      42.972375875262699      26.518195409566385
  1413   1    -0.51106343426997014      31.202788593845106      32.469526796397723
  1414   1      8.1038894718494152      43.538446064346857      27.442966163728745
  1415   1      7.4056320217103835      29.857874301312499      33.181995232020867
  1416   1     0.18752843338623698      42.193660942089025      26.730491758784179
  1417   1     0.25952535567942875      30.149784502456157       33.67300743698889
  1418   1      7.3336597668527288      42.485179824561868      26.239521420901941
  1419   6      4.6383595606866015       43.97923592498001      27.911366557397464
  1420   6      2.9548676717520923      31.643734857374234      32.001432620588048
  1421   1      3.6261003213229661      43.833567520183607        27.5236011837838
  1422   1      3.9671263357177762      31.497636510675854      32.389135151745521
  1423   1      5.2718246644991087      43.163365312132576      27.557372826066985
  1424   1      2.3211118753982434      30.828018336584844      32.355356753837938
  1425   1      5.0169810245361521      44.912339981452874      27.480071079196378
  1426   1      2.5766439725156807      32.576925055205173      32.432941673517099
  1427   6      7.2532504514576903      32.153945813012953      24.762463233022583
  1428   6     0.33972204542040357      44.489358643566874      35.149974534639327
  1429   1      8.0985468155541209      32.837786113723482      24.883258225648742
  1430   1    -0.50553939101023904      45.173208084769158      35.029122870274065
  1431   1      6.4773008107251639      32.687206699556576      24.204186951034082
  1432   1       1.115670747817981      45.022638381824144      35.708239366647561
  1433   6      6.7170204595926011      31.687244325899869      26.102885063155334
  1434   6     0.87588788753946822      44.022586738707091      33.809561819114244
  1435   1      5.7576723748506407      31.175075504165935      25.992133859936427
  1436   1       1.835238275603692      43.510432018706837      33.920323509498012
  1437   1      6.5472698592766632      32.566723542399885      26.734866673054466
  1438   1      1.0456075446065123      44.901989484629652       33.17745114460363
  1439   1       7.413169769205548      31.032957649837822      26.636266154754029
  1440   1     0.17963641498979571      43.368259591067847      33.276366560482742
  1441  29       4.763599889951184      61.735970764772333      1.2156974010452735
  1442  29      3.8156308932900687      49.400639219441445      10.766810207337304
  1443  29      1.7048584518097161      61.044140866754041      1.7047931139663628
  1444  29      6.8742229273836797      73.379488616925755      10.277710443304878
  1445  29      6.0781945866602625        61.5783468174196      10.073406194720627
  1446  29      2.5010254267793255       73.91379379282489      1.9091447428815596
  1447  29      7.4485447385666435      61.472973991940492       3.128665912857663
  1448  29      1.1305591840755251       73.80838604196704      8.8539647392064484
  1449  29      8.5818321269535236      61.468743562781185      8.1664424194667404
  1450  29  -0.0024510423437169894      73.804314494404878      3.8163140616331384
  1451  29      2.9630088401962977      61.341379299801233      9.1335681824673802
  1452  29      5.6161978799308327      73.676708688587979      2.8491092749947078
  1453  29      1.3326894076334794      61.293906351982336       4.970536083388847
  1454  29      7.2465573090019966      73.629267355829541      7.0121421190709086
  1455  29      4.4467820300283343      61.937688724960211      4.5614794421595377
  1456  29      4.1324014050177853      49.602344256614224      7.4209856294636376
  1457   7       8.533992376915247      62.504069773596427      4.4991808575677226
  1458   7    0.045336621944790746      50.168811111877055      7.4834254447426245
  1459   7      8.0557456089759381      62.921854855931429      5.5450109677624866
  1460   7      0.5235357802731555      50.586632694997057      6.4376018877281602
  1461   7      4.6491888207094387      62.874004050372491      7.5049338576405642
  1462   7      3.9299658581824981      50.538643774471907      4.4775729669830495
  1463   7      1.2669723691899313        59.9668601117138      10.910718831977039
  1464   7      7.3121037419349841      72.302208596301767      1.0717787849441902
  1465   7      4.2893007175745659      60.507732877665738      10.416158559766773
  1466   7      4.2898657151620494      72.843123298949109       1.566390355126267
  1467   7      6.4179619930240932      60.489258111902785       1.679085830311885
  1468   7      2.1613169293721795      72.824651415982004      10.303550014957949
  1469   7      2.8896731523050638      62.527008184482369     0.90366497259741219
  1470   7      5.6893764513679477      50.191460869541871      11.078975461140789
  1471   7     0.33617545228335938      59.171126019153391      6.6201148821301521
  1472   7      8.2431137243533108      71.506572354784126      5.3624213157379943
  1473   7      4.2969965320491763      59.293654873337225      10.607044084767642
  1474   7      4.2821178475211656      71.629017980228696      1.3756624388351535
  1475   7      4.8627573087509246      63.145492395748839       6.374978267875167
  1476   7      3.7164799442298597      50.810190399829835      5.6075293484146211
  1477   7      1.5980520545894918      62.385064724199708      8.0409748002304884
  1478   7      6.9811829692931289      50.049773613523541      3.9415242925262959
  1479   7      6.8108498874209831       60.51597710633574      8.4799434426162552
  1480   7       1.768457577568439      72.851435258057549      3.5026135044179361
  1481   7      1.0118183448041758      58.781379317064136      3.2972048992364256
  1482   7      7.5672331081970201      71.116665458515783      8.6854090194317504
  1483   7      1.3833199273779346      60.232804479410234      9.7387292132283196
  1484   7      7.1958547824029848      72.568158720711978      2.2437738123877731
  1485   7   -0.024551640421565765       62.09004409401372      1.7367700993661772
  1486   7      8.6035880556178927      49.754724696087337      10.245898285118564
  1487   7      6.1377430348375963      59.605205932015352      4.7800228657863491
  1488   7      2.4415626516687681      71.940734295418935      7.2024257399612486
  1489   7      2.3452672941157138      63.203230564287068      11.905687410550415
  1490   7      6.2338144362527332       50.86766630580891    0.076930736304725078
  1491   7     0.32227163378920815      60.397537346067345      6.5254221061282127
  1492   7      8.2569621457904621      72.733004200001901      5.4571488648629929
  1493   7      3.6029355171836057      59.709031736018133      7.5798777561367912
  1494   7      4.9763386686093689      72.044437323804587      4.4026577940724367
  1495   7      8.6387643952859605      63.208658858460623      1.2606661612491736
  1496   7   -0.059643087311900114       50.87331945579011       10.72202447593552
  1497   7      5.3833014994642649      63.887766757356339      11.575710140776419
  1498   7      3.1957778762696627      51.552359995234916     0.40684644843038786
  1499   7      6.1557777799128583      60.813564776998057      4.5585601060916048
  1500   7      2.4233413365799836      73.149080894938606      7.4239421935268934
  1501   7      3.2033235922152934       60.39979487576808      5.3219641640609412
  1502   7      5.3757035941615188      72.735095355544132      6.6606431998183764
  1503   7      5.3640665109923944      62.964512390759218      3.0288674161126767
  1504   7      3.2151658166124486      50.629176052855442      8.9537711637912931
  1505   7      7.7891299038986181      63.829837327390379      9.5347257728548875
  1506   7     0.79015009958543414      51.494521526070514      2.4478482351666573
  1507   7       4.460750955662534      62.645990557722669      8.6817247222933318
  1508   7       4.118374080949696      50.310541547472745      3.3007926394941349
  1509   7       3.571846893423162       60.34282033223171      2.0985767306917804
  1510   7      5.0072686196336216      72.678103328735389      9.8840242961602485
  1511   7     0.83188130118084924       59.99276001329018       3.259773950666184
  1512   7      7.7473084872281612      72.328028905890648      8.7228743862314513
  1513   7      2.6146817908168947      62.744397309109694      4.3533321746914284
  1514   7      5.9645125794948513      50.409225475226435      7.6292122649318568
  1515   7      5.5223062710131821      62.672989390822472      11.719510158424725
  1516   7      3.0568255377081579      50.337582316249033     0.26303606319368061
  1517   7      3.8817313468316126      59.157036430246386      2.1805781751778497
  1518   7      4.6973541194145954      71.492322524262988       9.802041618591419
  1519   7      6.9580874577828489       60.20857728917489     0.61995721690155225
  1520   7      1.6211067838499829      72.543911674173756      11.362631675113349
  1521   7      4.9269511861196671      67.498539736042218      6.2334793130980799
  1522   7      3.6521995274618111       55.16309439832289      5.7490742257580587
  1523   7      7.9945393734149359      55.699740964009777      11.869009719607009
  1524   7     0.58460879642294994      68.035181784507614     0.11335337225655616
  1525   7      5.4625236424861816      64.183560532213463      2.9736424779820125
  1526   7      3.1167626968281326      51.848225024145293      9.0090387555273015
  1527   7      7.8230542809378703      62.608663226089462      9.6806340673203568
  1528   7     0.75613594462600153      50.273361072887752      2.3018134091833065
  1529   7       1.681377173585618      63.606079376283652      7.9197564290871378
  1530   7      6.8978238679536856      51.270777984234002      4.0627758069289097
  1531   7      3.4137724348045917      60.046827418048011      6.4700823558529832
  1532   7      5.1653558752445656      72.382214745537155      5.5124902894965349
  1533   7      6.6621479793875586      59.296565583415429      8.4363452282176503
  1534   7      1.9170372357893319      71.632009199829909       3.546117645552862
  1535   7     0.35084446595159569      58.005634002931458      6.7011769552267015
  1536   7      8.2284618720430345      70.341059707177962      5.2814338763557416
  1537   7      2.3528021465481537      63.813161151250455      3.8164384633133417
  1538   7      6.2263868035616321      51.477973899382491      8.1661548591630222
  1539   7      2.0691201385912024      63.867956313963191      10.984166114149959
  1540   7       6.510074912088549      51.532422541176565     0.99839122930485635
  1541   7      6.4803098769287191      58.144983785785286      8.3807271851944467
  1542   7      2.0986386736260121      70.480389460635763      3.6016077116936072
  1543   7       4.204045592434821      58.040186522697368      2.2750356520909465
  1544   7      4.3749815471160902       70.37547597716285       9.707713644417435
  1545   7      1.1571112120833029      57.618313784907372      3.3261493412180396
  1546   7      7.4217920917327724      69.953614705077882      8.6563997736857257
  1547   7       4.318512676152789      58.149330838446936      10.844508781957927
  1548   7      4.2606528137093198      70.484658989693969      1.1383896647088887
  1549   7      7.1308264674362878      59.972858590697541      11.533156881567393
  1550   7      1.4481536533365484      72.308185072337437     0.44933538677774715
  1551   7      2.1005532231936828      64.834629853178853        3.30815294988966
  1552   7      6.4784760742633383      52.499533674548857      8.6743579653939733
  1553   7        6.13968783192814      58.459506618952901      5.0123572368191969
  1554   7      2.4397111857474747      70.795018716320357      6.9701760549770704
  1555   7      7.6871941912544166      63.294305660989565      6.5920099257290907
  1556   7     0.89206051875086401      50.959212388248503      5.3906288151903956
  1557   7       5.264029030499084      65.040673304845754      11.442320803525647
  1558   7      3.3150271235797004      52.705270656971202     0.54019855466211697
  1559   7      1.3581157598663058      59.666638085409517    0.063572459467938755
  1560   7      7.2209369492442859      72.001999687899556      11.918916279281023
  1561   7      1.7549045795490175      64.760229408208318      7.7654830441588034
  1562   7      6.8243231227099361      52.424938778030452      4.2170490417949322
  1563   7      7.7668625561395741      64.989369869502227      9.4129501715300243
  1564   7     0.81247750894086346      52.654032273133616      2.5697899766811876
  1565   6     0.74797819364833462      55.156583125976518     0.41216874156095079
  1566   6      7.8311528929838827      67.491994273996085      11.570260118213042
  1567   1     0.59652937740096013      54.981492889150857      1.4799527068677203
  1568   1       7.982581308449654      67.317076621894813      10.502454319650329
  1569   1     0.64823130751320479      54.177251626401478      11.932735982072813
  1570   1      7.9309628986846503       66.51263063189208    0.049650647084087035
  1571   7       8.446383304540138      64.265685878270475     0.80583738881278266
  1572   7     0.13275535002800817      51.930343218997599      11.176858121778706
  1573   6      2.4060300337070299      67.495523811980505      5.7639350203049595
  1574   6      6.1731643132474288      55.159922201968222      6.2181963904568294
  1575   1      2.4382423667106199      68.465907899143346      5.2596196956845622
  1576   1      6.1410142099656646      56.130463218389416      6.7222398807579298
  1577   1      2.0674899650537135      67.645050604501762        6.79345325231722
  1578   1       6.511524220291852      55.309069680238537      5.1885629416934043
  1579   1      1.6532996814332628      66.880208576150608      5.2574925210390653
  1580   1      6.9259564449610043      54.544699990965974       6.724669984781614
  1581   6      1.9451680621139982      56.056717039461461     0.16854252490902921
  1582   6      6.6340247074480585      68.392118899207603      11.813943508678584
  1583   1      2.0023785428609964      56.076693365920562       11.10047585851388
  1584   1      6.5769253113994361      68.412286862223937      0.8820169332448351
  1585   1      2.7848039648561698      55.651812976244351     0.74335448738580023
  1586   1      5.7942882317697695      67.987180510068669       11.23932788892713
  1587   1      1.7882608006580922      57.084774607314664     0.50654880084019216
  1588   1      6.7909173202374848      69.420080878506781      11.475716916958596
  1589   6      5.1466681444380109      68.795912533784644      5.4563552961913473
  1590   6      3.4325661113953663      56.460480190474073      6.5262724696324712
  1591   1      4.3618976084103123       69.48484101839145      5.7855888603786729
  1592   1       4.217235829113398      57.149501181670573      6.1969660545051228
  1593   1      6.1018390588518487       69.19885885214768      5.8045742345151758
  1594   1      2.4773158724744384       56.86348871386992      6.1782718614952854
  1595   6      4.7242435590382055      67.905960029934462      7.6859683549162563
  1596   6      3.8548006523528562       55.57050861439501      4.2966048161100616
  1597   1      3.8518010254161585      68.565838446465207      7.7009367609097064
  1598   1      4.7270911907122217       56.23059985982605      4.2816020371184234
  1599   1       5.588106033926544      68.521852104782724      7.9534367359149813
  1600   1      2.9907609094401297       56.18617117038599      4.0293174005932784
  1601   6      7.4208665131514673      67.059678450594262      6.7148382056853375
  1602   6      1.1582752773215277      54.724092737860538      5.2677019600877015
  1603   1      7.7536408831044579      68.021875441923513      6.3154891737888477
  1604   1     0.82518312152881534      55.685996071305667      5.6673987522460632
  1605   1      8.1943674459534535      66.312975206655977      6.4951338290555247
  1606   1     0.38492327216190564       53.97721397779776      5.4872816137575953
  1607   1      7.3532271219304066      67.133520253527436      7.8032630128622218
  1608   1      1.2260659187878917      54.798366244839293      4.1793058953386746
  1609   7      5.5962417653870942      65.345620795841199      2.8783048783122096
  1610   7      2.9831466703743623      53.010301972351272      9.1043870402004607
  1611   6       3.719644022398453      66.739402658404288      5.6922548068946845
  1612   6      4.8595105366069751      54.403910335331346      6.2902266425937228
  1613   1      3.9699550686661618      66.472715973717342      4.6611678440479443
  1614   1      4.6094556380171818      54.137320136018729      7.3214136106695067
  1615   1      3.6617641093548099       65.80529342820698       6.257709407642368
  1616   1      4.9172244520454678      53.469740053108829      5.7248465016325545
  1617   6      6.1301024310488961      66.565600323104292      6.0875965600618427
  1618   6      2.4490387591842016      54.230171033082229      5.8949758417811671
  1619   1      5.8307658447819311      65.607285245543693      6.5244352419206626
  1620   1       2.748343701248416      53.271855181560923      5.4581575799925917
  1621   1      6.2497781515124995      66.394602833555169      5.0133558740717481
  1622   1      2.3292669856129771      54.059272089202494      6.9692296401693898
  1623   6       5.637145042403982      54.897900876295679      11.306456204194236
  1624   6      2.9419354682842824      67.233301669211215     0.67610782130296165
  1625   1      5.6492213917823557      54.987294716938436       10.21598981363748
  1626   1      2.9294882141886576       67.32263544893253      1.7665757930664105
  1627   1      5.2360026456090099      55.826550534676471      11.723652181752843
  1628   1      3.3431507728805201      68.161935470966398     0.25899417838316663
  1629   1      4.9385681635907872       54.09067248387742      11.557286382715841
  1630   1      3.6404638133896179      66.425948359821206     0.42547783459326416
  1631   6      7.0056927989214497      54.538848629163162      11.854231013650629
  1632   6      1.5734494659091813      66.874295135366822      0.1281406880970157
  1633   1      7.2001785747786045       54.16278187106402     0.89788496786065197
  1634   1      1.3790591581425737      66.498219539872935       11.08447663709773
  1635   1      7.4658510306262151      53.746740859724952      11.259087295710025
  1636   1      1.1133515641886065      66.082206939261184     0.72336285582941362
  1637   6      4.5580803657778297      66.747657275547382      8.6497390585783123
  1638   6      4.0210342842495157      54.412278031367272      3.3328460326343503
  1639   1      3.6696536956473502      66.142640295883226      8.4440454079966951
  1640   1      4.9096489172392799      53.807517042546543      3.5383030660361872
  1641   1      4.4395472980683852      67.165067959384643      9.6559384214517223
  1642   1      4.1393630063779776      54.829765213920894      2.3267027344826414
  1643   1      5.4362172809952911      66.095716450860621       8.684928784904665
  1644   1      3.1430843002400661      53.760101173417283      3.2977022705145274
  1645   6      8.1530919650294837      56.291874958220525      10.478505124986702
  1646   6     0.42611064440493562      68.627447860788195      1.5038071591469302
  1647   1    0.011094217139403137      57.139723952306596      10.581558105848979
  1648   1      8.5679855674241949      69.475176207281862      1.4006173800279111
  1649   1      7.1801099792971463      56.705762619429265      10.198590593371854
  1650   1      1.3991310133191557      69.041317847625265      1.7836516314319844
  1651   6    -0.18783626167685319      55.307485417038208       9.429271126630665
  1652   6      8.7671123881123911      67.643148374124038      2.5531398986201723
  1653   1    -0.01794218303348152      55.873561092706446      8.5044712854515137
  1654   1      8.5970107230859032      68.209218563208196      3.4779106527825343
  1655   1      7.8987532729468724      54.528646800173838      9.2169397210746542
  1656   1     0.68064968462272568      66.864433440950364      2.7654362478379682
  1657   1     0.75264660691591745      54.820557001317496      9.7079519260426785
  1658   1      7.8267810180892177      67.155952323423207      2.2744659099557287
  1659   6      5.1314808119230904      68.650008423841342      3.9463110464512514
  1660   6      3.4479889229885807      56.314507356235573      8.0363771096418386
  1661   1      4.1192215725594545      68.504340019044946      3.5585456728375893
  1662   1      4.4602475869542646      56.168409009537193       8.424079640799313
  1663   1      5.7649459157355976      67.834137810993923      3.5923173151207748
  1664   1      2.8142331266347318      55.498790835446179      8.3903012428917254
  1665   1       5.510102275772641      69.583112480314213      3.5150155682501687
  1666   1      3.0697652237521691      57.247697554066512      8.4678861625708883
  1667   6      7.7463717026941792      56.824718311874292     0.79740772207637278
  1668   6     0.83284329665689227      69.160131142428213      11.184919023693116
  1669   1      8.5916680667906089      57.508558612584821     0.91820271470253068
  1670   1    -0.01241813977375044      69.843980583630497      11.064067359327856
  1671   1      6.9704220619616528      57.357979198417915     0.23913144008786985
  1672   1      1.6087919990544697      69.693410880685491      11.743183855701348
  1673   6      7.2101417108290899      56.358016824761208      2.1378295522091237
  1674   6      1.3690091387759569       68.69335923756843      9.8445063081680342
  1675   1      6.2507936260871295      55.845848003027271      2.0270783489902171
  1676   1      2.3283595268401807      68.181204517568176      9.9552679985518022
  1677   1       7.040391110513152      57.237496041261224       2.769811162108256
  1678   1      1.5387287958430009      69.572761983490992      9.2123956336574171
  1679   1      7.9062910204420369      55.703730148699165      2.6712106438078189
  1680   1     0.67275766622628441      68.039032089929179      9.3113110495365348
  1681  29      4.5170384536494348      61.735969184993046      13.198225156518379
  1682  29       3.569069456988319      49.400637639662158      22.749337962810408
  1683  29      1.4582970155079666      61.044139286974755      13.687320869439468
  1684  29      6.6276614910819305      73.379487037146461      22.260238198777984
  1685  29      5.8316331503585133      61.578345237640313      22.055933950193733
  1686  29      2.2544639904775758       73.91379221304561      13.891672498354666
  1687  29      7.2019833022648942      61.472972412161205      15.111193668330769
  1688  29     0.88399774777377571       73.80838446218776      20.836492494679554
  1689  29      8.3352706906517735      61.468741983001898      20.148970174939848
  1690  29    -0.24901247864546652      73.804312914625598      15.798841817106243
  1691  29      2.7164474038945481      61.341377720021939      21.116095937940486
  1692  29      5.3696364436290835      73.676707108808685      14.831637030467814
  1693  29        1.08612797133173      61.293904772203049      16.953063838861951
  1694  29      6.9999958727002474      73.629265776050246      18.994669874544016
  1695  29      4.2002205937265851      61.937687145180924      16.544007197632645
  1696  29      3.8858399687160357      49.602342676834937      19.403513384936744
  1697   7      8.2874309406134969       62.50406819381714       16.48170861304083
  1698   7     -0.2012248143569588      50.168809532097768      19.465953200215729
  1699   7      7.8091841726741889      62.921853276152142      17.527538723235594
  1700   7     0.27697434397140591       50.58663111521777      18.420129643201264
  1701   7      4.4026273844076895      62.874002470593197       19.48746161311367
  1702   7      3.6834044218807485      50.538642194692621      16.460100722456154
  1703   7      1.0204109328881819       59.96685853193452      22.893246587450143
  1704   7      7.0655423056332349      72.302207016522487      13.054306540417295
  1705   7      4.0427392812728167      60.507731297886451      22.398686315239878
  1706   7      4.0433042788603002      72.843121719169829      13.548918110599372
  1707   7       6.171400556722344      60.489256532123498      13.661613585784991
  1708   7        1.91475549307043      72.824649836202724      22.286077770431056
  1709   7      2.6431117160033142      62.527006604703082      12.886192728070517
  1710   7      5.4428150150661985      50.191459289762584      23.061503216613893
  1711   7     0.08961401598160984      59.171124439374111      18.602642637603257
  1712   7      7.9965522880515616      71.506570775004832      17.344949071211101
  1713   7      4.0504350957474271      59.293653293557938      22.589571840240747
  1714   7      4.0355564112194164      71.629016400449416      13.358190194308259
  1715   7      4.6161958724491754      63.145490815969552      18.357506023348272
  1716   7      3.4699185079281101      50.810188820050548      17.590057103887727
  1717   7      1.3514906182877424      62.385063144420428      20.023502555703594
  1718   7      6.7346215329913797      50.049772033744254      15.924052047999401
  1719   7      6.5642884511192339      60.515975526556446      20.462471198089361
  1720   7      1.5218961412666896      72.851433678278255      15.485141259891041
  1721   7     0.76525690850242634      58.781377737284856       15.27973265470953
  1722   7      7.3206716718952709      71.116663878736503      20.667936774904856
  1723   7      1.1367584910761852      60.232802899630947      21.721256968701425
  1724   7      6.9492933461012356      72.568157140932684       14.22630156786088
  1725   7     -0.2711130767233153      62.090042514234433      13.719297854839283
  1726   7      8.3570266193161427       49.75472311630805      22.228426040591671
  1727   7      5.8911815985358471      59.605204352236065      16.762550621259454
  1728   7      2.1950012153670184      71.940732715639655      19.184953495434353
  1729   7      2.0987058578139641      63.203228984507774      23.888215166023521
  1730   7       5.987252999950984      50.867664726029624       12.05945849177783
  1731   7    0.075710197487458608      60.397535766288058      18.507949861601318
  1732   7       8.010400709488712      72.733002620222621      17.439676620336098
  1733   7      3.3563740808818561      59.709030156238853      19.562405511609896
  1734   7      4.7297772323076197      72.044435744025293      16.385185549545543
  1735   7      8.3922029589842104      63.208657278681343       13.24319391672228
  1736   7    -0.30620452361364964      50.873317876010823      22.704552231408627
  1737   7      5.1367400631625157      63.887765177577052      23.558237896249523
  1738   7      2.9492164399679131      51.552358415455629      12.389374203903493
  1739   7      5.9092163436111091       60.81356319721877      16.541087861564712
  1740   7       2.176779900278234      73.149079315159312      19.406469948999998
  1741   7      2.9567621559135437      60.399793295988793      17.304491919534048
  1742   7      5.1291421578597696      72.735093775764838      18.643170955291481
  1743   7      5.1175050746906452      62.964510810979931      15.011395171585782
  1744   7       2.968604380310699      50.629174473076155      20.936298919264399
  1745   7      7.5425684675968689      63.829835747611085      21.517253528327991
  1746   7      0.5435886632836846      51.494519946291227      14.430375990639764
  1747   7      4.2141895193607848      62.645988977943382      20.664252477766439
  1748   7      3.8718126446479464      50.310539967693458      15.283320394967241
  1749   7      3.3252854571214123      60.342818752452416      14.081104486164886
  1750   7      4.7607071833318724      72.678101748956095      21.866552051633356
  1751   7     0.58531986487909959        59.9927584335109       15.24230170613929
  1752   7       7.500747050926412      72.328027326111368      20.705402141704557
  1753   7       2.368120354515145      62.744395729330407      16.335859930164535
  1754   7       5.717951143193102      50.409223895447148      19.611740020404962
  1755   7      5.2757448347114329      62.672987811043186      23.702037913897833
  1756   7      2.8102641014064083      50.337580736469747      12.245563818666787
  1757   7      3.6351699105298629      59.157034850467099      14.163105930650955
  1758   7      4.4507926831128461      71.492320944483694      21.784569374064525
  1759   7      6.7115260214810997      60.208575709395603      12.602484972374658
  1760   7      1.3745453475482334      72.543910094394462      23.345159430586456
  1761   7      4.6803897498179179      67.498538156262939      18.216007068571187
  1762   7      3.4056380911600614      55.163092818543603      17.731601981231165
  1763   7      7.7479779371131867      55.699739384230497      23.851537475080114
  1764   7     0.33804736012120035      68.035180204728334      12.095881127729662
  1765   7      5.2159622061844324      64.183558952434169      14.956170233455119
  1766   7      2.8702012605263829      51.848223444366006      20.991566511000407
  1767   7       7.576492844636121      62.608661646310175      21.663161822793462
  1768   7       0.509574508324252      50.273359493108465      14.284341164656412
  1769   7      1.4348157372838686      63.606077796504366      19.902284184560244
  1770   7      6.6512624316519364      51.270776404454715      16.045303562402015
  1771   7       3.167210998502842      60.046825838268717      18.452610111326088
  1772   7      4.9187944389428164      72.382213165757861       17.49501804496964
  1773   7      6.4155865430858094      59.296564003636142      20.418872983690754
  1774   7      1.6704757994875825      71.632007620050615      15.528645401025967
  1775   7     0.10428302964984615      58.005632423152171      18.683704710699807
  1776   7      7.9819004357412853      70.341058127398668      17.263961631828849
  1777   7       2.106240710246404      63.813159571471175      15.798966218786447
  1778   7      5.9798253672598829      51.477972319603204       20.14868261463613
  1779   7      1.8225587022894529      63.867954734183904      22.966693869623064
  1780   7      6.2635134757867998      51.532420961397278      12.980918984777961
  1781   7      6.2337484406269699      58.144982206005999      20.363254940667552
  1782   7      1.8520772373242627      70.480387880856483      15.584135467166712
  1783   7      3.9574841561330714      58.040184942918088      14.257563407564053
  1784   7       4.128420110814341       70.37547439738357      21.690241399890539
  1785   7     0.91054977578155349      57.618312205128078      15.308677096691145
  1786   7      7.1752306554310232      69.953613125298602      20.638927529158831
  1787   7      4.0719512398510398      58.149329258667649      22.827036537431034
  1788   7      4.0140913774075706      70.484657409914675      13.120917420181994
  1789   7      6.8842650311345386      59.972857010918254      23.515684637040501
  1790   7       1.201592217034799      72.308183492558143      12.431863142250853
  1791   7      1.8539917868919333      64.834628273399574      15.290680705362766
  1792   7      6.2319146379615891       52.49953209476957      20.656885720867081
  1793   7      5.8931263956263908      58.459505039173614      16.994884992292302
  1794   7       2.193149749445725      70.795017136541077      18.952703810450174
  1795   7      7.4406327549526674      63.294304081210271      18.574537681202195
  1796   7     0.64549908244911447      50.959210808469216        17.3731565706635
  1797   7      5.0174675941973348      65.040671725066474      23.424848558998754
  1798   7      3.0684656872779508      52.705269077191915      12.522726310135223
  1799   7      1.1115543235645564       59.66663650563023      12.046100214941044
  1800   7      6.9743755129425367      72.001998108120276      23.901444034754128
  1801   7       1.508343143247268      64.760227828429024       19.74801079963191
  1802   7      6.5777616864081869      52.424937198251165      16.199576797268037
  1803   7      7.5203011198378249      64.989368289722933      21.395477927003128
  1804   7     0.56591607263911392      52.654030693354329      14.552317732154293
  1805   6     0.50141675734658508      55.156581546197231      12.394696497034056
  1806   6      7.5845914566821335      67.491992694216805       23.55278787368615
  1807   1     0.34996794109921053      54.981491309371563      13.462480462340826
  1808   1      7.7360198721479048      67.317075042115533      22.484982075123433
  1809   1      0.4016698712114552      54.177250046622191      23.915263737545921
  1810   1      7.6844014623829011        66.5126290521128      12.032178402557193
  1811   7      8.1998218682383879       64.26568429849118      12.788365144285889
  1812   7    -0.11380608627374136      51.930341639218312      23.159385877251811
  1813   6      2.1594685974052803       67.49552223220121      17.746462775778063
  1814   6      5.9266028769456796      55.159920622188935      18.200724145929936
  1815   1      2.1916809304088702      68.465906319364066      17.242147451157667
  1816   1      5.8944527736639154      56.130461638610129      18.704767636231036
  1817   1      1.8209285287519641      67.645049024722468      18.775981007790325
  1818   1      6.2649627839901028      55.309068100459257      17.171090697166509
  1819   1      1.4067382451315134      66.880206996371328      17.240020276512169
  1820   1      6.6793950086592551      54.544698411186687       18.70719774025472
  1821   6      1.6986066258122487      56.056715459682174      12.151070280382134
  1822   6      6.3874632711463093      68.392117319428309      23.796471264151691
  1823   1      1.7558171065592469      56.076691786141275      23.083003613986985
  1824   1      6.3303638750976869      68.412285282444643       12.86454468871794
  1825   1      2.5382425285544201      55.651811396465064      12.725882242858905
  1826   1      5.5477267954680203      67.987178930289389      23.221855644400236
  1827   1      1.5416993643563428      57.084773027535377      12.489076556313298
  1828   1      6.5443558839357356      69.420079298727501      23.458244672431704
  1829   6      4.9001067081362617       68.79591095400535      17.438883051664455
  1830   6      3.1860046750936166      56.460478610694793      18.508800225105578
  1831   1      4.1153361721085631       69.48483943861217      17.768116615851778
  1832   1      3.9706743928116484      57.149499601891286      18.179493809978229
  1833   1      5.8552776225500995        69.1988572723684       17.78710198998828
  1834   1      2.2307544361726888      56.863487134090633       18.16079961696839
  1835   6      4.4776821227364563      67.905958450155168      19.668496110389363
  1836   6      3.6082392160511065      55.570507034615723      16.279132571583169
  1837   1      3.6052395891144089      68.565836866685927      19.683464516382813
  1838   1      4.4805297544104725      56.230598280046763      16.264129792591529
  1839   1      5.3415445976247948       68.52185052500343      19.935964491388088
  1840   1      2.7441994731383801      56.186169590606703      16.011845156066386
  1841   6      7.1743050768497181      67.059676870814968      18.697365961158443
  1842   6     0.91171384101977826      54.724091158081251      17.250229715560806
  1843   1      7.5070794468027087      68.021873862144218      18.298016929261955
  1844   1     0.57862168522706581       55.68599449152638      17.649926507719169
  1845   1      7.9478060096517043      66.312973626876683      18.477661584528629
  1846   1      0.1383618358601561      53.977212398018473      17.469809369230703
  1847   1      7.1066656856286574      67.133518673748156      19.785790768335328
  1848   1      0.9795044824861423      54.798364665060006      16.161833650811779
  1849   7       5.349680329085345      65.345619216061905      14.860832633785314
  1850   7      2.7365852340726127      53.010300392571985      21.086914795673565
  1851   6      3.4730825860967034      66.739401078624994      17.674782562367788
  1852   6      4.6129491003052259       54.40390875555206       18.27275439806683
  1853   1      3.7233936323644121      66.472714393938048      16.643695599521049
  1854   1      4.3628942017154326      54.137318556239443      19.303941366142613
  1855   1      3.4152026730530602      65.805291848427686      18.240237163115474
  1856   1      4.6706630157437186      53.469738473329542      17.707374257105659
  1857   6      5.8835409947471469      66.565598743325012      18.070124315534947
  1858   6      2.2024773228824519      54.230169453302949      17.877503597254272
  1859   1      5.5842044084801818      65.607283665764413      18.506962997393767
  1860   1      2.5017822649466663      53.271853601781636      17.440685335465698
  1861   1      6.0032167152107503      66.394601253775875      16.995883629544853
  1862   1      2.0827055493112274      54.059270509423207      18.951757395642495
  1863   6      5.3905836061022327      54.897899296516393      23.288983959667341
  1864   6      2.6953740319825328      67.233300089431935      12.658635576776067
  1865   1      5.4026599554806065      54.987293137159149      22.198517569110585
  1866   1      2.6829267778869079      67.322633869153236      13.749103548539516
  1867   1      4.9894412093072606      55.826548954897184      23.706179937225947
  1868   1      3.0965893365787704      68.161933891187118      12.241521933856273
  1869   1       4.692006727289038      54.090670904098133      23.539814138188945
  1870   1      3.3939023770878682      66.425946780041926       12.40800559006637
  1871   6      6.7591313626197005      54.538847049383875      23.836758769123733
  1872   6      1.3268880296074319      66.874293555587528      12.110668443570122
  1873   1      6.9536171384768553      54.162780291284733      12.880412723333757
  1874   1      1.1324977218408243       66.49821796009364      23.067004392570837
  1875   1      7.2192895943244659      53.746739279945658      23.241615051183132
  1876   1     0.86679012788685705       66.08220535948189       12.70589061130252
  1877   6      4.3115189294760805      66.747655695768088       20.63226681405142
  1878   6      3.7744728479477661      54.412276451587985      15.315373788107456
  1879   1      3.4230922593456006      66.142638716103932      20.426573163469801
  1880   1      4.6630874809375307      53.807515462767256      15.520830821509293
  1881   1       4.192985861766636      67.165066379605364       21.63846617692483
  1882   1       3.892801570076228      54.829763634141599      14.309230489955747
  1883   1      5.1896558446935419      66.095714871081327      20.667456540377771
  1884   1      2.8965228639383165      53.760099593637989      15.280230025987633
  1885   6      7.9065305287277345      56.291873378441238      22.461032880459808
  1886   6     0.17954920810318609      68.627446281008915      13.486334914620036
  1887   1    -0.23546721916234642      57.139722372527309      22.564085861322084
  1888   1      8.3214241311224448      69.475174627502568      13.383145135501017
  1889   1      6.9335485429953971      56.705761039649978      22.181118348844961
  1890   1      1.1525695770174063      69.041316267845971       13.76617938690509
  1891   6    -0.43439769797860273      55.307483837258914      21.411798882103771
  1892   6       8.520550951810641      67.643146794344744      14.535667654093277
  1893   1    -0.26450361933523109      55.873559512927159      20.486999040924619
  1894   1      8.3504492867841531      68.209216983428917      15.460438408255641
  1895   1      7.6521918366451231      54.528645220394552       21.19946747654776
  1896   1     0.43408824832097609      66.864431861171084      14.747964003311074
  1897   1      0.5060851706141678      54.820555421538209      21.690479681515782
  1898   1      7.5802195817874685      67.155950743643913      14.256993665428833
  1899   6      4.8849193756213412      68.650006844062062      15.928838801924357
  1900   6      3.2014274866868311      56.314505776456286      20.018904865114944
  1901   1      3.8726601362577049      68.504338439265666      15.541073428310694
  1902   1      4.2136861506525154      56.168407429757906       20.40660739627242
  1903   1      5.5183844794338484      67.834136231214629      15.574845070593881
  1904   1      2.5676716903329821      55.498789255666892      20.372828998364831
  1905   1      5.2635408394708918      69.583110900534933      15.497543323723274
  1906   1      2.8232037874504194      57.247695974287225      20.450413918043992
  1907   6        7.49981026639243      56.824716732094998      12.779935477549479
  1908   6     0.58628186035514274      69.160129562648933       23.16744677916622
  1909   1      8.3451066304888588      57.508557032805534      12.900730470175636
  1910   1    -0.25897957607549998      69.843979003851217      23.046595114800962
  1911   1      6.7238606256599036      57.357977618638628      12.221659195560976
  1912   1      1.3622305627527203      69.693409300906197      23.725711611174454
  1913   6      6.9635802745273407      56.358015244981921       14.12035730768223
  1914   6      1.1224477024742074       68.69335765778915       21.82703406364114
  1915   1      6.0042321897853803      55.845846423247991      14.009606104463323
  1916   1       2.081798090538431      68.181202937788896      21.937795754024908
  1917   1      6.7938296742114028      57.237494461481944      14.752338917581362
  1918   1      1.2921673595412515      69.572760403711698      21.194923389130523
  1919   1      7.6597295841402877      55.703728568919878      14.653738399280925
  1920   1     0.42619622992453482        68.0390305101499      21.293838805009642
  1921  29      4.2704770173476847      61.735967605213752      25.180752911991483
  1922  29      3.3225080206865698      49.400636059882864      34.731865718283515
  1923  29       1.211735579206217      61.044137707195461      25.669848624912575
  1924  29      6.3811000547801804      73.379485457367167      34.242765954251091
  1925  29      5.5850717140567632      61.578343657861019       34.03846170566684
  1926  29      2.0079025541758266      73.913790633266316       25.87420025382777
  1927  29      6.9554218659631442      61.472970832381911      27.093721423803874
  1928  29     0.63743631147202606      73.808382882408466      32.819020250152661
  1929  29      8.0887092543500252      61.468740403222604      32.131497930412948
  1930  29    -0.49557391494721609      73.804311334846304      27.781369572579351
  1931  29      2.4698859675927989      61.341376140242645      33.098623693413593
  1932  29      5.1230750073273335      73.676705529029391      26.814164785940918
  1933  29     0.83956653502998035      61.293903192423755      28.935591594335058
  1934  29      6.7534344363984973      73.629264196270952       30.97719763001712
  1935  29      3.9536591574248354       61.93768556540163      28.526534953105749
  1936  29      3.6392785324142864      49.602341097055643      31.386041140409848
  1937   7      8.0408695043117486      62.504066614037846      28.464236368513934
  1938   7    -0.44778625065870836      50.168807952318474      31.448480955688837
  1939   7      7.5626227363724388      62.921851696372848      29.510066478708698
  1940   7    0.030412907669656375      50.586629535438476      30.402657398674371
  1941   7      4.1560659481059394      62.874000890813903      31.469989368586774
  1942   7      3.4368429855789993      50.538640614913326      28.442628477929262
  1943   7     0.77384949658643221      59.966856952155226      34.875774342923251
  1944   7      6.8189808693314848      72.302205436743193      25.036834295890401
  1945   7       3.796177844971067      60.507729718107157      34.381214070712986
  1946   7      3.7967428425585505      72.843120139390535      25.531445866072477
  1947   7      5.9248391204205939      60.489254952344204      25.644141341258095
  1948   7      1.6681940567686804      72.824648256423416      34.268605525904164
  1949   7       2.396550279701565      62.527005024923788      24.868720483543623
  1950   7      5.1962535787644484       50.19145770998329         35.044030972087
  1951   7     -0.1569474203201397      59.171122859594817      30.585170393076364
  1952   7      7.7499908517498115      71.506569195225552      29.327476826684205
  1953   7      3.8038736594456775      59.293651713778644      34.572099595713851
  1954   7      3.7889949749176668      71.629014820670108      25.340717949781364
  1955   7      4.3696344361474253      63.145489236190258      30.340033778821379
  1956   7      3.2233570716263609      50.810187240271254       29.57258485936083
  1957   7      1.1049291819859928      62.385061564641134      32.006030311176701
  1958   7      6.4880600966896296       50.04977045396496      27.906579803472507
  1959   7      6.3177270148174838      60.515973946777152      32.444998953562468
  1960   7      1.2753347049649399      72.851432098498975      27.467669015364148
  1961   7     0.51869547220067669      58.781376157505562      27.262260410182638
  1962   7      7.0741102355935208      71.116662298957209       32.65046453037796
  1963   7     0.89019705477443556      60.232801319851653      33.703784724174533
  1964   7      6.7027319097994855      72.568155561153389      26.208829323333983
  1965   7    -0.51767451302506484      62.090040934455139      25.701825610312387
  1966   7      8.1104651830143943      49.754721536528756      34.210953796064771
  1967   7       5.644620162234097      59.605202772456771      28.745078376732561
  1968   7       1.948439779065269      71.940731135860347      31.167481250907461
  1969   7      1.8521444215122147       63.20322740472848      35.870742921496628
  1970   7      5.7406915636492339      50.867663146250329      24.041986247250936
  1971   7    -0.17085123881429093      60.397534186508764      30.490477617074426
  1972   7      7.7638392731869628      72.733001040443327      29.422204375809205
  1973   7      3.1098126445801069      59.709028576459559      31.544933267083003
  1974   7      4.4832157960058696      72.044434164246013      28.367713305018647
  1975   7      8.1456415226824621      63.208655698902049      25.225721672195384
  1976   7    -0.55276595991539923      50.873316296231529      34.687079986881727
  1977   7      4.8901786268607657      63.887763597797758       35.54076565172263
  1978   7      2.7026550036661638      51.552356835676335      24.371901959376601
  1979   7      5.6626549073093591      60.813561617439476      28.523615617037816
  1980   7      1.9302184639764846      73.149077735380018      31.388997704473105
  1981   7      2.7102007196117945      60.399791716209499      29.287019675007151
  1982   7      4.8825807215580195      72.735092195985544      30.625698710764588
  1983   7      4.8709436383888951      62.964509231200637       26.99392292705889
  1984   7      2.7220429440089497      50.629172893296861      32.918826674737502
  1985   7      7.2960070312951188      63.829834167831791      33.499781283801099
  1986   7     0.29702722698193501      51.494518366511933      26.412903746112868
  1987   7      3.9676280830590351      62.645987398164088      32.646780233239539
  1988   7      3.6252512083461972      50.310538387914164      27.265848150440345
  1989   7      3.0787240208196631      60.342817172673122       26.06363224163799
  1990   7      4.5141457470301223      72.678100169176815      33.849079807106463
  1991   7     0.33875842857735011      59.992756853731606      27.224829461612394
  1992   7      7.2541856146246619      72.328025746332074      32.687929897177661
  1993   7      2.1215589182133958      62.744394149551113      28.318387685637639
  1994   7       5.471389706891352      50.409222315667854      31.594267775878066
  1995   7      5.0291833984096828      62.672986231263891       35.68456566937094
  1996   7      2.5637026651046591      50.337579156690452      24.228091574139892
  1997   7      3.3886084742281137      59.157033270687805      26.145633686124061
  1998   7      4.2042312468110961        71.4923193647044      33.767097129537632
  1999   7      6.4649645851793496      60.208574129616309      24.585012727847765
  2000   7      1.1279839112464838      72.543908514615168      35.327687186059563
  2001   7      4.4338283135161678      67.498536576483644      30.198534824044291
  2002   7      3.1590766548583122      55.163091238764309      29.714129736704269
  2003   7      7.5014165008114366      55.699737804451203      35.834065230553222
  2004   7     0.09148592381945081      68.035178624949026      24.078408883202766
  2005   7      4.9694007698826823      64.183557372654874      26.938697988928222
  2006   7      2.6236398242246337      51.848221864586712      32.974094266473514
  2007   7       7.329931408334371      62.608660066530881       33.64568957826657
  2008   7      0.2630130720225024      50.273357913329171      26.266868920129518
  2009   7      1.1882543009821189      63.606076216725072      31.884811940033348
  2010   7      6.4047009953501863      51.270774824675421      28.027831317875119
  2011   7      2.9206495622010928      60.046824258489423      30.435137866799195
  2012   7      4.6722330026410663      72.382211585978567      29.477545800442748
  2013   7      6.1690251067840594      59.296562423856848      32.401400739163861
  2014   7      1.4239143631858329      71.632006040271321      27.511173156499073
  2015   7    -0.14227840665190339      58.005630843372877      30.666232466172914
  2016   7      7.7353389994395352      70.341056547619374      29.246489387301953
  2017   7      1.8596792739446546      63.813157991691881      27.781493974259554
  2018   7      5.7332639309581328       51.47797073982391       32.13121037010923
  2019   7      1.5759972659877033       63.86795315440461      34.949221625096172
  2020   7      6.0169520394850498      51.532419381617984      24.963446740251069
  2021   7      5.9871870043252198      58.144980626226705       32.34578269614066
  2022   7       1.605515801022513      70.480386301077189      27.566663222639818
  2023   7      3.7109227198313222      58.040183363138794      26.240091163037157
  2024   7      3.8818586745125914      70.375472817604276      33.672769155363646
  2025   7     0.66398833947980385      57.618310625348784      27.291204852164249
  2026   7      6.9286692191292731      69.953611545519308      32.621455284631935
  2027   7      3.8253898035492901      58.149327678888355      34.809564292904142
  2028   7       3.767529941105821      70.484655830135381        25.1034451756551
  2029   7      6.6377035948327885       59.97285543113896      35.498212392513608
  2030   7     0.95503078073304937      72.308181912778849      24.414390897723958
  2031   7      1.6074303505901837       64.83462669362028      27.273208460835871
  2032   7       5.985353201659839      52.499530514990276      32.639413476340181
  2033   7      5.6465649593246408       58.45950345939432      28.977412747765406
  2034   7      1.9465883131439756      70.795015556761768      30.935231565923281
  2035   7      7.1940713186509173      63.294302501430977      30.557065436675302
  2036   7     0.39893764614736488      50.959209228689922      29.355684326136608
  2037   7      4.7709061578955847       65.04067014528718      35.407376314471861
  2038   7      2.8219042509762016      52.705267497412621      24.505254065608327
  2039   7     0.86499288726280676      59.666634925850936      24.028627970414149
  2040   7      6.7278140766407866      72.001996528340982      35.883971790227235
  2041   7      1.2617817069455184       64.76022624864973      31.730538555105014
  2042   7      6.3312002501064368      52.424935618471871      28.182104552741144
  2043   7      7.2737396835360748      64.989366709943639      33.378005682476235
  2044   7     0.31935463633736433      52.654029113575035        26.5348454876274
  2045   6     0.25485532104483549      55.156579966417937      24.377224252507162
  2046   6      7.3380300203803834      67.491991114437511      35.535315629159257
  2047   1       0.103406504797461      54.981489729592269      25.445008217813932
  2048   1      7.4894584358461547      67.317073462336225      34.467509830596541
  2049   1     0.15510843490970566      54.177248466842897      35.897791493019028
  2050   1       7.437840026081151      66.512627472333492      24.014706158030297
  2051   7      7.9532604319366387      64.265682718711901      24.770892899758994
  2052   7    -0.36036752257549087      51.930340059439018      35.141913632724915
  2053   6      1.9129071611035309      67.495520652421931      29.728990531251171
  2054   6      5.6800414406439295      55.159919042409641       30.18325190140304
  2055   1      1.9451194941071208      68.465904739584772      29.224675206630774
  2056   1      5.6478913373621653      56.130460058830835       30.68729539170414
  2057   1      1.5743670924502144      67.645047444943174      30.758508763263432
  2058   1      6.0184013476883527      55.309066520679963      29.153618452639616
  2059   1      1.1601768088297637      66.880205416592034      29.222548031985276
  2060   1       6.432833572357505      54.544696831407393      30.689725495727824
  2061   6      1.4520451895104991       56.05671387990288       24.13359803585524
  2062   6      6.1409018348445592      68.392115739649029      35.778999019624791
  2063   1      1.5092556702574973      56.076690206361981      35.065531369460089
  2064   1      6.0838024387959369      68.412283702665349      24.847072444191046
  2065   1      2.2916810922526709       55.65180981668577      24.708409998332012
  2066   1      5.3011653591662702      67.987177350510095      35.204383399873343
  2067   1      1.2951379280545932      57.084771447756083      24.471604311786404
  2068   1      6.2977944476339855      69.420077718948207      35.440772427904804
  2069   6      4.6535452718345116      68.795909374226056      29.421410807137558
  2070   6      2.9394432387918674      56.460477030915499      30.491327980578681
  2071   1      3.8687747358068134      69.484837858832876      29.750644371324885
  2072   1      3.7241129565098992      57.149498022111992      30.162021565451333
  2073   1      5.6087161862483494      69.198855692589092      29.769629745461387
  2074   1      1.9841929998709393      56.863485554311339      30.143327372441497
  2075   6      4.2311206864347062      67.905956870375888      31.651023865862467
  2076   6      3.3616777797493573      55.570505454836429      28.261660327056273
  2077   1      3.3586781528126597      68.565835286906633      31.665992271855917
  2078   1      4.2339683181087224      56.230596700267469      28.246657548064633
  2079   1      5.0949831613230447      68.521848945224136      31.918492246861192
  2080   1      2.4976380368366309      56.186168010827409      27.994372911539489
  2081   6       6.927743640547968      67.059675291035688      30.679893716631547
  2082   6     0.66515240471802861      54.724089578301957      29.232757471033914
  2083   1      7.2605180105009586      68.021872282364924      30.280544684735059
  2084   1     0.33206024892531621      55.685992911747086      29.632454263192272
  2085   1      7.7012445733499542      66.312972047097389      30.460189340001737
  2086   1    -0.10819960044159344      53.977210818239179      29.452337124703806
  2087   1      6.8601042493269073      67.133517093968862      31.768318523808432
  2088   1     0.73294304618439265      54.798363085280712      28.144361406284887
  2089   7      5.1031188927835949      65.345617636282611      26.843360389258422
  2090   7      2.4900237977708635      53.010298812792691      33.069442551146672
  2091   6      3.2265211497949542        66.7393994988457      29.657310317840896
  2092   6      4.3663876640034758      54.403907175772765      30.255282153539934
  2093   1      3.4768321960626629      66.472712814158754      28.626223354994156
  2094   1      4.1163327654136825      54.137316976460149      31.286469121615717
  2095   1       3.168641236751311      65.805290268648392      30.222764918588581
  2096   1      4.4241015794419685      53.469736893550248      29.689902012578766
  2097   6      5.6369795584453968      66.565597163545718      30.052652071008055
  2098   6      1.9559158865807025      54.230167873523655      29.860031352727379
  2099   1      5.3376429721784318      65.607282085985119      30.489490752866875
  2100   1      2.2552208286449171      53.271852022002342      29.423213090938802
  2101   1      5.7566552789090002      66.394599673996581       28.97841138501796
  2102   1       1.836144113009478      54.059268929643913      30.934285151115603
  2103   6      5.1440221698004827      54.897897716737099      35.271511715140448
  2104   6      2.4488125956807836      67.233298509652641      24.641163332249171
  2105   1      5.1560985191788564      54.987291557379855      34.181045324583692
  2106   1      2.4363653415851587      67.322632289373942      25.731631304012623
  2107   1      4.7428797730055106       55.82654737511789      35.688707692699055
  2108   1      2.8500279002770212       68.16193231140781      24.224049689329377
  2109   1      4.4454452909872879      54.090669324318839      35.522341893662052
  2110   1       3.147340940786119      66.425945200262632      24.390533345539474
  2111   6      6.5125699263179504      54.538845469604581      35.819286524596841
  2112   6      1.0803265933056823      66.874291975808234      24.093196199043227
  2113   1      6.7070557021751052      54.162778711505439      24.862940478806863
  2114   1     0.88593628553907466      66.498216380314346      35.049532148043937
  2115   1      6.9727281580227158      53.746737700166364      35.224142806656232
  2116   1     0.62022869158510741      66.082203779702596      24.688418366775625
  2117   6      4.0649574931743304      66.747654115988809       32.61479456952452
  2118   6      3.5279114116460168      54.412274871808691      27.297901543580561
  2119   1      3.1765308230438514      66.142637136324637      32.409100918942904
  2120   1      4.4165260446357806      53.807513882987962        27.5033585769824
  2121   1      3.9464244254648864      67.165064799826069      33.620993932397937
  2122   1      3.6462401337744788      54.829762054362305      26.291758245428852
  2123   1      4.9430944083917918      66.095713291302047      32.649984295850878
  2124   1      2.6499614276365673      53.760098013858695      27.262757781460738
  2125   6      7.6599690924259844      56.291871798661944      34.443560635932911
  2126   6    -0.06701222819856345      68.627444701229621      25.468862670093142
  2127   1    -0.48202865546409596      57.139720792748015      34.546613616795192
  2128   1      8.0748626948206965      69.475173047723274      25.365672890974121
  2129   1       6.686987106693647      56.705759459870684      34.163646104318062
  2130   1     0.90600814071565661      69.041314688066677      25.748707142378194
  2131   6    -0.68095913428035226       55.30748225747962      33.394326637576874
  2132   6      8.2739895155088927       67.64314521456545      26.518195409566385
  2133   1    -0.51106505563698057      55.873557933147865      32.469526796397723
  2134   1      8.1038878504824048      68.209215403649623      27.442966163728745
  2135   1      7.4056304003433731      54.528643640615257      33.181995232020867
  2136   1     0.18752681201922655      66.864430281391776      26.730491758784179
  2137   1     0.25952373431241832      54.820553841758915       33.67300743698889
  2138   1      7.3336581454857184      67.155949163864619      26.239521420901941
  2139   6      4.6383579393195911      68.650005264282768      27.911366557397464
  2140   6      2.9548660503850819      56.314504196676992      32.001432620588048
  2141   1      3.6260986999559557      68.504336859486372        27.5236011837838
  2142   1      3.9671247143507657      56.168405849978612      32.389135151745521
  2143   1      5.2718230431320983      67.834134651435335      27.557372826066985
  2144   1      2.3211102540312329      55.498787675887598      32.355356753837938
  2145   1      5.0169794031691417      69.583109320755639      27.480071079196378
  2146   1      2.5766423511486702      57.247694394507931      32.432941673517099
  2147   6      7.2532488300906799      56.824715152315704      24.762463233022583
  2148   6     0.33972042405339314      69.160127982869625      35.149974534639327
  2149   1      8.0985451941871105       57.50855545302624      24.883258225648742
  2150   1    -0.50554101237724947      69.843977424071909      35.029122870274065
  2151   1      6.4772991893581535      57.357976038859334      24.204186951034082
  2152   1      1.1156691264509706      69.693407721126903      35.708239366647561
  2153   6      6.7170188382255906      56.358013665202627      26.102885063155334
  2154   6     0.87588626617245779      68.693356078009856      33.809561819114244
  2155   1      5.7576707534836302      55.845844843468697      25.992133859936427
  2156   1      1.8352366542366816      68.181201358009602      33.920323509498012
  2157   1      6.5472682379096527       57.23749288170265      26.734866673054466
  2158   1      1.0456059232395019      69.572758823932418       33.17745114460363
  2159   1      7.4131681478385376      55.703726989140584      26.636266154754029
  2160   1     0.17963479362278528      68.039028930370606      33.276366560482742
  2161  29      13.589345543301212      12.394432086166814      1.2156974010452735
  2162  29      12.641376546640096    0.059100540835926106      10.766810207337304
  2163  29      10.530604105159744      11.702602188148525      1.7047931139663628
  2164  29      15.699968580733707      24.037949938320235      10.277710443304878
  2165  29      14.903940240010289      12.236808138814082      10.073406194720627
  2166  29      11.326771080129353      24.572255114219377      1.9091447428815596
  2167  29      16.274290391916672      12.131435313334975       3.128665912857663
  2168  29      9.9563048374255523      24.466847363361527      8.8539647392064484
  2169  29      17.407577780303551      12.127204884175669      8.1664424194667404
  2170  29      8.8232946110063111      24.462775815799368      3.8163140616331384
  2171  29      11.788754493546325      11.999840621195712      9.1335681824673802
  2172  29       14.44194353328086      24.335170009982455      2.8491092749947078
  2173  29      10.158435060983507       11.95236767337682       4.970536083388847
  2174  29      16.072302962352026       24.28772867722402      7.0121421190709086
  2175  29      13.272527683378362      12.596150046354696      4.5614794421595377
  2176  29      12.958147058367814     0.26080557800870857      7.4209856294636376
  2177   7      17.359738030265277      13.162531094990909      4.4991808575677226
  2178   7      8.8710822752948193     0.82727243327153765      7.4834254447426245
  2179   7      16.881491262325966      13.580316177325914      5.5450109677624866
  2180   7      9.3492814336231831      1.2450940163915383      6.4376018877281602
  2181   7      13.474934474059467      13.532465371766971      7.5049338576405642
  2182   7      12.755711511532526      1.1971050958663902      4.4775729669830495
  2183   7      10.092718022539959      10.625321433108287      10.910718831977039
  2184   7      16.137849395285013      22.960669917696254      1.0717787849441902
  2185   7      13.115046370924594      11.166194199060223      10.416158559766773
  2186   7      13.115611368512077      23.501584620343596       1.566390355126267
  2187   7      15.243707646374121       11.14771943329727       1.679085830311885
  2188   7      10.987062582722206      23.483112737376487      10.303550014957949
  2189   7      11.715418805655091      13.185469505876853     0.90366497259741219
  2190   7      14.515122104717975     0.84992219093635613      11.078975461140789
  2191   7      9.1619211056333878       9.829587340547878      6.6201148821301521
  2192   7       17.06885937770334      22.165033676178609      5.3624213157379943
  2193   7      13.122742185399204      9.9521161947317083      10.607044084767642
  2194   7      13.107863500871193      22.287479301623179      1.3756624388351535
  2195   7      13.688502962100952      13.803953717143322       6.374978267875167
  2196   7      12.542225597579888      1.4686517212243198      5.6075293484146211
  2197   7      10.423797707939519      13.043526045594195      8.0409748002304884
  2198   7      15.806928622643156     0.70823493491802303      3.9415242925262959
  2199   7      15.636595540771012       11.17443842773022      8.4799434426162552
  2200   7      10.594203230918467      23.509896579452032      3.5026135044179361
  2201   7       9.837563998154204      9.4398406384586231      3.2972048992364256
  2202   7      16.392978761547049       21.77512677991027      8.6854090194317504
  2203   7      10.209065580727962      10.891265800804716      9.7387292132283196
  2204   7      16.021600435753012      23.226620042106454      2.2437738123877731
  2205   7      8.8011940129284625      12.748505415408202      1.7367700993661772
  2206   7      17.429333708967921      0.4131860174818171      10.245898285118564
  2207   7      14.963488688187624      10.263667253409833      4.7800228657863491
  2208   7      11.267308305018796      22.599195616813418      7.2024257399612486
  2209   7      11.171012947465741      13.861691885681548      11.905687410550415
  2210   7      15.059560089602762      1.5261276272033957    0.076930736304725078
  2211   7      9.1480172871392362      11.055998667461829      6.5254221061282127
  2212   7       17.08270779914049      23.391465521396388      5.4571488648629929
  2213   7      12.428681170533633       10.36749305741262      7.5798777561367912
  2214   7      13.802084321959397       22.70289864519907      4.4026577940724367
  2215   7      17.464510048635987       13.86712017985511      1.2606661612491736
  2216   7      8.7661025660381284      1.5317807771845922       10.72202447593552
  2217   7      14.209047152814293       14.54622807875082      11.575710140776419
  2218   7      12.021523529619691      2.2108213166293993     0.40684644843038786
  2219   7      14.981523433262886      11.472026098392538      4.5585601060916048
  2220   7      11.249086989930012      23.807542216333086      7.4239421935268934
  2221   7      12.029069245565321      11.058256197162565      5.3219641640609412
  2222   7      14.201449247511547      23.393556676938612      6.6606431998183764
  2223   7      14.189812164342422      13.622973712153703      3.0288674161126767
  2224   7      12.040911469962477      1.2876373742499221      8.9537711637912931
  2225   7      16.614875557248645      14.488298648784859      9.5347257728548875
  2226   7      9.6158957529354616      2.1529828474649992      2.4478482351666573
  2227   7      13.286496609012563      13.304451879117154      8.6817247222933318
  2228   7      12.944119734299724     0.96900286886722975      3.3007926394941349
  2229   7       12.39759254677319       11.00128165362619      2.0985767306917804
  2230   7       13.83301427298365      23.336564650129873      9.8840242961602485
  2231   7      9.6576269545308762      10.651221334684667       3.259773950666184
  2232   7       16.57305414057819      22.986490227285138      8.7228743862314513
  2233   7      11.440427444166922      13.402858630504177      4.3533321746914284
  2234   7      14.790258232844879      1.0676867966209214      7.6292122649318568
  2235   7       14.34805192436321      13.331450712216956      11.719510158424725
  2236   7      11.882571191058187     0.99604363764351944     0.26303606319368061
  2237   7       12.70747700018164      9.8154977516408675      2.1805781751778497
  2238   7      13.523099772764624      22.150783845657468       9.802041618591419
  2239   7      15.783833111132877      10.867038610569372     0.61995721690155225
  2240   7      10.446852437200011      23.202372995568236      11.362631675113349
  2241   7      13.752696839469696      18.157001057436705      6.2334793130980799
  2242   7      12.477945180811838      5.8215557197173764      5.7490742257580587
  2243   7      16.820285026764964      6.3582022854042641      11.869009719607009
  2244   7      9.4103544497729779      18.693643105902098     0.11335337225655616
  2245   7      14.288269295836209      14.842021853607944      2.9736424779820125
  2246   7       11.94250835017816       2.506686345539777      9.0090387555273015
  2247   7      16.648799934287897      13.267124547483945      9.6806340673203568
  2248   7      9.5818815979760288     0.93182239428223557      2.3018134091833065
  2249   7      10.507122826935646      14.264540697678134      7.9197564290871378
  2250   7      15.723569521303713      1.9292393056284876      4.0627758069289097
  2251   7       12.23951808815462      10.705288739442491      6.4700823558529832
  2252   7      13.991101528594594      23.040676066931635      5.5124902894965349
  2253   7      15.487893632737586      9.9550269048099107      8.4363452282176503
  2254   7       10.74278288913936      22.290470521224389       3.546117645552862
  2255   7      9.1765901193016237      8.6640953243259435      6.7011769552267015
  2256   7      17.054207525393061      20.999521028572442      5.2814338763557416
  2257   7      11.178547799898181      14.471622472644942      3.8164384633133417
  2258   7      15.052132456911661       2.136435220776975      8.1661548591630222
  2259   7       10.89486579194123      14.526417635357674      10.984166114149959
  2260   7      15.335820565438578      2.1908838625710487     0.99839122930485635
  2261   7      15.306055530278748      8.8034451071797672      8.3807271851944467
  2262   7      10.924384326976039       21.13885078203025      3.6016077116936072
  2263   7       13.02979124578485      8.6986478440918553      2.2750356520909465
  2264   7      13.200727200466119      21.033937298557337       9.707713644417435
  2265   7      9.9828568654333303      8.2767751063018515      3.3261493412180396
  2266   7      16.247537745082802      20.612076026472369      8.6563997736857257
  2267   7      13.144258329502817      8.8077921598414211      10.844508781957927
  2268   7      13.086398467059347      21.143120311088445      1.1383896647088887
  2269   7      15.956572120786316      10.631319912092026      11.533156881567393
  2270   7      10.273899306686577      22.966646393731917     0.44933538677774715
  2271   7      10.926298876543711      15.493091174573344        3.30815294988966
  2272   7      15.304221727613367      3.1579949959433438      8.6743579653939733
  2273   7      14.965433485278169      9.1179679403473859      5.0123572368191969
  2274   7      11.265456839097503       21.45348003771484      6.9701760549770704
  2275   7      16.512939844604446      13.952766982384045      6.5920099257290907
  2276   7      9.7178061721008913       1.617673709642989      5.3906288151903956
  2277   7      14.089774683849111      15.699134626240241      11.442320803525647
  2278   7      12.140772776929728      3.3637319783656818     0.54019855466211697
  2279   7      10.183861413216334      10.325099406804002    0.063572459467938755
  2280   7      16.046682602594313      22.660461009294043      11.918916279281023
  2281   7      10.580650232899046      15.418690729602799      7.7654830441588034
  2282   7      15.650068776059964      3.0834000994249364      4.2170490417949322
  2283   7      16.592608209489601      15.647831190896705      9.4129501715300243
  2284   7      9.6382231622908918      3.3124935945281022      2.5697899766811876
  2285   6      9.5737238469983623       5.815044447371001     0.41216874156095079
  2286   6       16.65689854633391      18.150455595390575      11.570260118213042
  2287   1      9.4222750307509884      5.6399542105453371      1.4799527068677203
  2288   1      16.808326961799683      17.975537943289297      10.502454319650329
  2289   1      9.4739769608632329      4.8357129477959591      11.932735982072813
  2290   1      16.756708552034677      17.171091953286563    0.049650647084087035
  2291   7      17.272128957890168      14.924147199664958     0.80583738881278266
  2292   7      8.9585010033780357       2.588804540392081      11.176858121778706
  2293   6      11.231775687057057      18.153985133374988      5.7639350203049595
  2294   6      14.998909966597456      5.8183835233627033      6.2181963904568294
  2295   1      11.263988020060648      19.124369220537833      5.2596196956845622
  2296   1      14.966759863315692      6.7889245397838964      6.7222398807579298
  2297   1      10.893235618403741      18.303511925896238        6.79345325231722
  2298   1       15.33726987364188      5.9675310016330236      5.1885629416934043
  2299   1       10.47904533478329      17.538669897545098      5.2574925210390653
  2300   1      15.751702098311032      5.2031613123604581       6.724669984781614
  2301   6      10.770913715464026      6.7151783608559468     0.16854252490902921
  2302   6      15.459770360798085      19.050580220602086      11.813943508678584
  2303   1      10.828124196211025      6.7351546873150481       11.10047585851388
  2304   1      15.402670964749465      19.070748183618417      0.8820169332448351
  2305   1      11.610549618206198      6.3102742976388324     0.74335448738580023
  2306   1      14.620033885119797      18.645641831463156       11.23932788892713
  2307   1       10.61400645400812      7.7432359287091463     0.50654880084019216
  2308   1      15.616662973587513      20.078542199901271      11.475716916958596
  2309   6       13.97241379778804      19.454373855179121      5.4563552961913473
  2310   6      12.258311764745393      7.1189415118685595      6.5262724696324712
  2311   1      13.187643261760339      20.143302339785937      5.7855888603786729
  2312   1      13.042981482463425      7.8079625030650543      6.1969660545051228
  2313   1      14.927584712201877      19.857320173542163      5.8045742345151758
  2314   1      11.303061525824466       7.521950035264406      6.1782718614952854
  2315   6      13.549989212388233      18.564421351328946      7.6859683549162563
  2316   6      12.680546305702883       6.228969935789495      4.2966048161100616
  2317   1      12.677546678766186      19.224299767859694      7.7009367609097064
  2318   1      13.552836844062249      6.8890611812205309      4.2816020371184234
  2319   1      14.413851687276573      19.180313426177204      7.9534367359149813
  2320   1      11.816506562790158      6.8446324917804739      4.0293174005932784
  2321   6      16.246612166501496      17.718139771988746      6.7148382056853375
  2322   6       9.984020930671555      5.3825540592550229      5.2677019600877015
  2323   1      16.579386536454486      18.680336763317992      6.3154891737888477
  2324   1      9.6509287748788424      6.3444573927001517      5.6673987522460632
  2325   1      17.020113099303479      16.971436528050454      6.4951338290555247
  2326   1      9.2106689255119338      4.6356752991922443      5.4872816137575953
  2327   1      16.178972775280435      17.791981574921923      7.8032630128622218
  2328   1       10.05181157213792      5.4568275662337777      4.1793058953386746
  2329   7      14.421987418737121      16.004082117235679      2.8783048783122096
  2330   7       11.80889232372439      3.6687632937457555      9.1043870402004607
  2331   6      12.545389675748481      17.397863979798768      5.6922548068946845
  2332   6      13.685256189957002      5.0623716567258317      6.2902266425937228
  2333   1      12.795700722016189      17.131177295111822      4.6611678440479443
  2334   1      13.435201291367211      4.7957814574132129      7.3214136106695067
  2335   1      12.487509762704837       16.46375474960146       6.257709407642368
  2336   1      13.742970105395496      4.1282013745033135      5.7248465016325545
  2337   6      14.955848084398923      17.224061644498779      6.0875965600618427
  2338   6      11.274784412534229      4.8886323544767158      5.8949758417811671
  2339   1      14.656511498131959      16.265746566938184      6.5244352419206626
  2340   1      11.574089354598444      3.9303165029554052      5.4581575799925917
  2341   1      15.075523804862527      17.053064154949649      5.0133558740717481
  2342   1      11.155012638963004      4.7177334105969795      6.9692296401693898
  2343   6      14.462890695754009      5.5563621976901656      11.306456204194236
  2344   6      11.767681121634311      17.891762990605702     0.67610782130296165
  2345   1      14.474967045132384      5.6457560383329186       10.21598981363748
  2346   1      11.755233867538685       17.98109677032701      1.7665757930664105
  2347   1      14.061748298959039      6.4850118560709529      11.723652181752843
  2348   1      12.168896426230548      18.820396792360881     0.25899417838316663
  2349   1      13.764313816940815      4.7491338052719039      11.557286382715841
  2350   1      12.466209466739645      17.084409681215693     0.42547783459326416
  2351   6      15.831438452271478      5.1973099505576448      11.854231013650629
  2352   6      10.399195119259209      17.532756456761298      0.1281406880970157
  2353   1       16.02592422812863      4.8212431924585024     0.89788496786065197
  2354   1      10.204804811492602      17.156680861267414       11.08447663709773
  2355   1      16.291596683976245      4.4052021811194315      11.259087295710025
  2356   1      9.9390972175386345      16.740668260655664     0.72336285582941362
  2357   6      13.383826019127858      17.406118596941866      8.6497390585783123
  2358   6      12.846779937599543      5.0707393527617555      3.3328460326343503
  2359   1      12.495399348997378      16.801101617277705      8.4440454079966951
  2360   1      13.735394570589307      4.4659783639410282      3.5383030660361872
  2361   1      13.265292951418413       17.82352928077913      9.6559384214517223
  2362   1      12.965108659728006      5.4882265353153734      2.3267027344826414
  2363   1       14.26196293434532      16.754177772255105       8.684928784904665
  2364   1      11.968829953590093      4.4185624948117628      3.2977022705145274
  2365   6      16.978837618379512      6.9503362796150077      10.478505124986702
  2366   6      9.2518562977549639      19.285909182182682      1.5038071591469302
  2367   1      8.8368398704894311      7.7981852737010824      10.581558105848979
  2368   1      17.393731220774221      20.133637528676338      1.4006173800279111
  2369   1      16.005855632647176      7.3642239408237486      10.198590593371854
  2370   1      10.224876666669184      19.699779169019745      1.7836516314319844
  2371   6      8.6379093916731744      5.9659467384326881       9.429271126630665
  2372   6      17.592858041462421      18.301609695518518      2.5531398986201723
  2373   1      8.8078034703165464      6.5320224141009309      8.5044712854515137
  2374   1      17.422756376435931      18.867679884602683      3.4779106527825343
  2375   1      16.724498926296899      5.1871081215683228      9.2169397210746542
  2376   1      9.5063953379727533      17.522894762344848      2.7654362478379682
  2377   1      9.5783922602659448      5.4790183227119806      9.7079519260426785
  2378   1      16.652526671439247      17.814413644817687      2.2744659099557287
  2379   6      13.957226465273118      19.308469745235833      3.9463110464512514
  2380   6      12.273734576338608      6.9729686776300577      8.0363771096418386
  2381   1      12.944967225909483      19.162801340439433      3.5585456728375893
  2382   1      13.285993240304293      6.8268703309316772       8.424079640799313
  2383   1      14.590691569085624      18.492599132388399      3.5923173151207748
  2384   1      11.639978779984759      6.1572521568406655      8.3903012428917254
  2385   1      14.335847929122668        20.2415738017087      3.5150155682501687
  2386   1      11.895510877102197      7.9061588754609984      8.4678861625708883
  2387   6      16.572117356044206      7.4831796332687723     0.79740772207637278
  2388   6      9.6585889500069193      19.818592463822696      11.184919023693116
  2389   1      17.417413720140637      8.1670199339793044     0.91820271470253068
  2390   1      8.8133275135762776       20.50244190502498      11.064067359327856
  2391   1      15.796167715311681      8.0164405198124005     0.23913144008786985
  2392   1      10.434537652404497      20.351872202079967      11.743183855701348
  2393   6      16.035887364179118      7.0164781461556895      2.1378295522091237
  2394   6      10.194754792125984      19.351820558962917      9.8445063081680342
  2395   1      15.076539279437156       6.504309324421758      2.0270783489902171
  2396   1      11.154105180190209      18.839665838962663      9.9552679985518022
  2397   1       15.86613676386318      7.8959573626557109       2.769811162108256
  2398   1      10.364474449193029      20.231223304885475      9.2123956336574171
  2399   1      16.732036673792066      6.3621914700936459      2.6712106438078189
  2400   1      9.4985033195763116       18.69749341132367      9.3113110495365348
  2401  29      13.342784106999462      12.394430506387524      13.198225156518379
  2402  29      12.394815110338346    0.059098961056636229      22.749337962810408
  2403  29      10.284042668857994      11.702600608369234      13.687320869439468
  2404  29      15.453407144431957      24.037948358540945      22.260238198777984
  2405  29      14.657378803708539      12.236806559034791      22.055933950193733
  2406  29      11.080209643827603      24.572253534440087      13.891672498354666
  2407  29      16.027728955614922      12.131433733555685      15.111193668330769
  2408  29      9.7097434011238022      24.466845783582237      20.836492494679554
  2409  29      17.161016344001801      12.127203304396378      20.148970174939848
  2410  29       8.576733174704561      24.462774236020078      15.798841817106243
  2411  29      11.542193057244575      11.999839041416422      21.116095937940486
  2412  29       14.19538209697911      24.335168430203165      14.831637030467814
  2413  29      9.9118736246817569      11.952366093597529      16.953063838861951
  2414  29      15.825741526050274       24.28772709744473      18.994669874544016
  2415  29      13.025966247076612      12.596148466575405      16.544007197632645
  2416  29      12.711585622066064     0.26080399822941869      19.403513384936744
  2417   7      17.113176593963523      13.162529515211618       16.48170861304083
  2418   7      8.6245208389930692     0.82727085349224783      19.465953200215729
  2419   7      16.634929826024216      13.580314597546623      17.527538723235594
  2420   7       9.102719997321433      1.2450924366122484      18.420129643201264
  2421   7      13.228373037757716      13.532463791987681       19.48746161311367
  2422   7      12.509150075230776      1.1971035160871004      16.460100722456154
  2423   7      9.8461565862382088      10.625319853328996      22.893246587450143
  2424   7      15.891287958983263      22.960668337916964      13.054306540417295
  2425   7      12.868484934622844      11.166192619280933      22.398686315239878
  2426   7      12.869049932210327      23.501583040564306      13.548918110599372
  2427   7      14.997146210072371       11.14771785351798      13.661613585784991
  2428   7      10.740501146420456      23.483111157597197      22.286077770431056
  2429   7      11.468857369353341      13.185467926097562      12.886192728070517
  2430   7      14.268560668416225      0.8499206111570663      23.061503216613893
  2431   7      8.9153596693316377      9.8295857607685875      18.602642637603257
  2432   7      16.822297941401587      22.165032096399319      17.344949071211101
  2433   7      12.876180749097454      9.9521146149524178      22.589571840240747
  2434   7      12.861302064569443      22.287477721843889      13.358190194308259
  2435   7      13.441941525799201      13.803952137364032      18.357506023348272
  2436   7      12.295664161278138      1.4686501414450299      17.590057103887727
  2437   7      10.177236271637769      13.043524465814905      20.023502555703594
  2438   7      15.560367186341406      0.7082333551387332      15.924052047999401
  2439   7      15.390034104469262      11.174436847950929      20.462471198089361
  2440   7      10.347641794616717      23.509894999672742      15.485141259891041
  2441   7      9.5910025618524539      9.4398390586793326       15.27973265470953
  2442   7      16.146417325245299      21.775125200130979      20.667936774904856
  2443   7      9.9625041444262123      10.891264221025425      21.721256968701425
  2444   7      15.775038999451262      23.226618462327163       14.22630156786088
  2445   7      8.5546325766267124      12.748503835628911      13.719297854839283
  2446   7       17.18277227266617     0.41318443770252722      22.228426040591671
  2447   7      14.716927251885874      10.263665673630543      16.762550621259454
  2448   7      11.020746868717046      22.599194037034128      19.184953495434353
  2449   7      10.924451511163991      13.861690305902258      23.888215166023521
  2450   7      14.812998653301012      1.5261260474241058       12.05945849177783
  2451   7      8.9014558508374861      11.055997087682538      18.507949861601318
  2452   7       16.83614636283874      23.391463941617097      17.439676620336098
  2453   7      12.182119734231883       10.36749147763333      19.562405511609896
  2454   7      13.555522885657647       22.70289706541978      16.385185549545543
  2455   7       17.21794861233424       13.86711860007582       13.24319391672228
  2456   7      8.5195411297363783      1.5317791974053023      22.704552231408627
  2457   7      13.962485716512543       14.54622649897153      23.558237896249523
  2458   7       11.77496209331794      2.2108197368501092      12.389374203903493
  2459   7      14.734961996961136      11.472024518613248      16.541087861564712
  2460   7      11.002525553628262      23.807540636553796      19.406469948999998
  2461   7      11.782507809263571      11.058254617383275      17.304491919534048
  2462   7      13.954887811209797      23.393555097159322      18.643170955291481
  2463   7      13.943250728040672      13.622972132374413      15.011395171585782
  2464   7      11.794350033660727      1.2876357944706323      20.936298919264399
  2465   7      16.368314120946895      14.488297069005569      21.517253528327991
  2466   7      9.3693343166337115      2.1529812676857092      14.430375990639764
  2467   7      13.039935172710813      13.304450299337864      20.664252477766439
  2468   7      12.697558297997974     0.96900128908793992      15.283320394967241
  2469   7       12.15103111047144        11.0012800738469      14.081104486164886
  2470   7        13.5864528366819      23.336563070350582      21.866552051633356
  2471   7      9.4110655182291261      10.651219754905377       15.24230170613929
  2472   7       16.32649270427644      22.986488647505848      20.705402141704557
  2473   7      11.193866007865171      13.402857050724887      16.335859930164535
  2474   7      14.543696796543129      1.0676852168416315      19.611740020404962
  2475   7       14.10149048806146      13.331449132437665      23.702037913897833
  2476   7      11.636009754756437     0.99604205786422961      12.245563818666787
  2477   7       12.46091556387989       9.815496171861577      14.163105930650955
  2478   7      13.276538336462874      22.150782265878178      21.784569374064525
  2479   7      15.537271674831127      10.867037030790081      12.602484972374658
  2480   7      10.200291000898261      23.202371415788946      23.345159430586456
  2481   7      13.506135403167946      18.156999477657415      18.216007068571187
  2482   7      12.231383744510088      5.8215541399380868      17.731601981231165
  2483   7      16.573723590463214      6.3582007056249745      23.851537475080114
  2484   7      9.1637930134712278      18.693641526122807      12.095881127729662
  2485   7      14.041707859534458      14.842020273828654      14.956170233455119
  2486   7       11.69594691387641      2.5066847657604869      20.991566511000407
  2487   7      16.402238497986147      13.267122967704655      21.663161822793462
  2488   7      9.3353201616742787     0.93182081450294574      14.284341164656412
  2489   7      10.260561390633896      14.264539117898844      19.902284184560244
  2490   7      15.477008085001962      1.9292377258491977      16.045303562402015
  2491   7       11.99295665185287        10.7052871596632      18.452610111326088
  2492   7      13.744540092292844      23.040674487152344       17.49501804496964
  2493   7      15.241332196435836      9.9550253250306202      20.418872983690754
  2494   7      10.496221452837609      22.290468941445098      15.528645401025967
  2495   7      8.9300286829998736       8.664093744546653      18.683704710699807
  2496   7      16.807646089091314      20.999519448793151      17.263961631828849
  2497   7      10.931986363596431      14.471620892865651      15.798966218786447
  2498   7      14.805571020609911       2.136433640997685       20.14868261463613
  2499   7       10.64830435563948      14.526416055578384      22.966693869623064
  2500   7      15.089259129136828      2.1908822827917587      12.980918984777961
  2501   7      15.059494093976998      8.8034435274004768      20.363254940667552
  2502   7      10.677822890674289       21.13884920225096      15.584135467166712
  2503   7        12.7832298094831      8.6986462643125648      14.257563407564053
  2504   7      12.954165764164369      21.033935718778046      21.690241399890539
  2505   7      9.7362954291315802       8.276773526522561      15.308677096691145
  2506   7      16.000976308781048      20.612074446693079      20.638927529158831
  2507   7      12.897696893201067      8.8077905800621306      22.827036537431034
  2508   7      12.839837030757597      21.143118731309155      13.120917420181994
  2509   7      15.710010684484566      10.631318332312736      23.515684637040501
  2510   7      10.027337870384827      22.966644813952627      12.431863142250853
  2511   7      10.679737440241961      15.493089594794053      15.290680705362766
  2512   7      15.057660291311617      3.1579934161640537      20.656885720867081
  2513   7      14.718872048976419      9.1179663605680954      16.994884992292302
  2514   7      11.018895402795753       21.45347845793555      18.952703810450174
  2515   7      16.266378408302693      13.952765402604754      18.574537681202195
  2516   7      9.4712447357991412      1.6176721298636991        17.3731565706635
  2517   7      13.843213247547361       15.69913304646095      23.424848558998754
  2518   7      11.894211340627978      3.3637303985863918      12.522726310135223
  2519   7      9.9372999769145842      10.325097827024711      12.046100214941044
  2520   7      15.800121166292563      22.660459429514752      23.901444034754128
  2521   7      10.334088796597296      15.418689149823509       19.74801079963191
  2522   7      15.403507339758214      3.0833985196456464      16.199576797268037
  2523   7      16.346046773187851      15.647829611117414      21.395477927003128
  2524   7      9.3916617259891417      3.3124920147488122      14.552317732154293
  2525   6      9.3271624106966122      5.8150428675917114      12.394696497034056
  2526   6       16.41033711003216      18.150454015611285       23.55278787368615
  2527   1      9.1757135944492383      5.6399526307660475      13.462480462340826
  2528   1      16.561765525497933      17.975536363510006      22.484982075123433
  2529   1      9.2274155245614828      4.8357113680166695      23.915263737545921
  2530   1      16.510147115732927      17.171090373507273      12.032178402557193
  2531   7      17.025567521588414      14.924145619885667      12.788365144285889
  2532   7      8.7119395670762856      2.5888029606127909      23.159385877251811
  2533   6      10.985214250755307      18.153983553595697      17.746462775778063
  2534   6      14.752348530295706      5.8183819435834137      18.200724145929936
  2535   1      11.017426583758898      19.124367640758543      17.242147451157667
  2536   1      14.720198427013942      6.7889229600046068      18.704767636231036
  2537   1      10.646674182101991      18.303510346116948      18.775981007790325
  2538   1       15.09070843734013       5.967529421853734      17.171090697166509
  2539   1       10.23248389848154      17.538668317765808      17.240020276512169
  2540   1      15.505140662009282      5.2031597325811685       18.70719774025472
  2541   6      10.524352279162276      6.7151767810766572      12.151070280382134
  2542   6      15.213208924496335      19.050578640822796      23.796471264151691
  2543   1      10.581562759909275      6.7351531075357585      23.083003613986985
  2544   1      15.156109528447715      19.070746603839126       12.86454468871794
  2545   1      11.363988181904448      6.3102727178595428      12.725882242858905
  2546   1      14.373472448818047      18.645640251683865      23.221855644400236
  2547   1       10.36744501770637      7.7432343489298567      12.489076556313298
  2548   1      15.370101537285763      20.078540620121981      23.458244672431704
  2549   6       13.72585236148629       19.45437227539983      17.438883051664455
  2550   6      12.011750328443643      7.1189399320892699      18.508800225105578
  2551   1      12.941081825458589      20.143300760006646      17.768116615851778
  2552   1      12.796420046161675      7.8079609232857647      18.179493809978229
  2553   1      14.681023275900127      19.857318593762873       17.78710198998828
  2554   1      11.056500089522716      7.5219484554851164       18.16079961696839
  2555   6      13.303427776086483      18.564419771549655      19.668496110389363
  2556   6      12.433984869401133      6.2289683560102054      16.279132571583169
  2557   1      12.430985242464436      19.224298188080404      19.683464516382813
  2558   1      13.306275407760499      6.8890596014412413      16.264129792591529
  2559   1      14.167290250974823      19.180311846397913      19.935964491388088
  2560   1      11.569945126488408      6.8446309120011843      16.011845156066386
  2561   6      16.000050730199746      17.718138192209455      18.697365961158443
  2562   6       9.737459494369805      5.3825524794757333      17.250229715560806
  2563   1      16.332825100152736      18.680335183538702      18.298016929261955
  2564   1      9.4043673385770923      6.3444558129208621      17.649926507719169
  2565   1      16.773551663001733      16.971434948271163      18.477661584528629
  2566   1      8.9641074892101837      4.6356737194129547      17.469809369230703
  2567   1      15.932411338978685      17.791979995142633      19.785790768335328
  2568   1      9.8052501358361699      5.4568259864544881      16.161833650811779
  2569   7      14.175425982435371      16.004080537456389      14.860832633785314
  2570   7       11.56233088742264      3.6687617139664654      21.086914795673565
  2571   6      12.298828239446731      17.397862400019477      17.674782562367788
  2572   6      13.438694753655252      5.0623700769465421       18.27275439806683
  2573   1      12.549139285714439      17.131175715332532      16.643695599521049
  2574   1       13.18863985506546      4.7957798776339233      19.303941366142613
  2575   1      12.240948326403087      16.463753169822169      18.240237163115474
  2576   1      13.496408669093746      4.1281997947240239      17.707374257105659
  2577   6      14.709286648097173      17.224060064719488      18.070124315534947
  2578   6      11.028222976232479      4.8886307746974262      17.877503597254272
  2579   1      14.409950061830209      16.265744987158893      18.506962997393767
  2580   1      11.327527918296694      3.9303149231761152      17.440685335465698
  2581   1      14.828962368560777      17.053062575170358      16.995883629544853
  2582   1      10.908451202661254      4.7177318308176899      18.951757395642495
  2583   6      14.216329259452259       5.556360617910876      23.288983959667341
  2584   6      11.521119685332561      17.891761410826412      12.658635576776067
  2585   1      14.228405608830634       5.645754458553629      22.198517569110585
  2586   1      11.508672431236935       17.98109519054772      13.749103548539516
  2587   1      13.815186862657288      6.4850102762916633      23.706179937225947
  2588   1      11.922334989928798      18.820395212581591      12.241521933856273
  2589   1      13.517752380639065      4.7491322254926143      23.539814138188945
  2590   1      12.219648030437895      17.084408101436402       12.40800559006637
  2591   6      15.584877015969727      5.1973083707783552      23.836758769123733
  2592   6      10.152633682957459      17.532754876982008      12.110668443570122
  2593   1      15.779362791826882      4.8212416126792128      12.880412723333757
  2594   1      9.9582433751908521      17.156679281488124      23.067004392570837
  2595   1      16.045035247674491      4.4052006013401419      23.241615051183132
  2596   1      9.6925357812368844      16.740666680876373       12.70589061130252
  2597   6      13.137264582826107      17.406117017162575       20.63226681405142
  2598   6      12.600218501297793      5.0707377729824659      15.315373788107456
  2599   1      12.248837912695627      16.801100037498415      20.426573163469801
  2600   1      13.488833134287557      4.4659767841617386      15.520830821509293
  2601   1      13.018731515116663       17.82352770099984       21.63846617692483
  2602   1      12.718547223426256      5.4882249555360838      14.309230489955747
  2603   1       14.01540149804357      16.754176192475814      20.667456540377771
  2604   1      11.722268517288343      4.4185609150324732      15.280230025987633
  2605   6      16.732276182077761      6.9503346998357181      22.461032880459808
  2606   6      9.0052948614532138      19.285907602403391      13.486334914620036
  2607   1       8.590278434187681      7.7981836939217928      22.564085861322084
  2608   1      17.147169784472474      20.133635948897048      13.383145135501017
  2609   1      15.759294196345424       7.364222361044459      22.181118348844961
  2610   1      9.9783152303674338      19.699777589240455       13.76617938690509
  2611   6      8.3913479553714243      5.9659451586533985      21.411798882103771
  2612   6      17.346296605160667      18.301608115739228      14.535667654093277
  2613   1      8.5612420340147963      6.5320208343216413      20.486999040924619
  2614   1      17.176194940134181      18.867678304823393      15.460438408255641
  2615   1      16.477937489995149      5.1871065417890332       21.19946747654776
  2616   1      9.2598339016710032      17.522893182565557      14.747964003311074
  2617   1      9.3318308239641947       5.479016742932691      21.690479681515782
  2618   1      16.405965235137494      17.814412065038397      14.256993665428833
  2619   6      13.710665028971368      19.308468165456542      15.928838801924357
  2620   6      12.027173140036858      6.9729670978507681      20.018904865114944
  2621   1      12.698405789607733      19.162799760660143      15.541073428310694
  2622   1      13.039431804002543      6.8268687511523876       20.40660739627242
  2623   1      14.344130132783874      18.492597552609109      15.574845070593881
  2624   1      11.393417343683009      6.1572505770613759      20.372828998364831
  2625   1      14.089286492820918       20.24157222192941      15.497543323723274
  2626   1      11.648949440800447      7.9061572956817088      20.450413918043992
  2627   6      16.325555919742456      7.4831780534894827      12.779935477549479
  2628   6      9.4120275137051692      19.818590884043406       23.16744677916622
  2629   1      17.170852283838887      8.1670183542000139      12.900730470175636
  2630   1      8.5667660772745275       20.50244032524569      23.046595114800962
  2631   1      15.549606279009931        8.01643894003311      12.221659195560976
  2632   1      10.187976216102747      20.351870622300677      23.725711611174454
  2633   6      15.789325927877368      7.0164765663763999       14.12035730768223
  2634   6      9.9481933558242339      19.351818979183626       21.82703406364114
  2635   1      14.829977843135406      6.5043077446424684      14.009606104463323
  2636   1      10.907543743888459      18.839664259183373      21.937795754024908
  2637   1       15.61957532756143      7.8959557828764213      14.752338917581362
  2638   1      10.117913012891279      20.231221725106185      21.194923389130523
  2639   1      16.485475237490313      6.3621898903143563      14.653738399280925
  2640   1      9.2519418832745615      18.697491831544379      21.293838805009642
  2641  29      13.096222670697713      12.394428926608235      25.180752911991483
  2642  29      12.148253674036598    0.059097381277346352      34.731865718283515
  2643  29      10.037481232556246      11.702599028589946      25.669848624912575
  2644  29       15.20684570813021      24.037946778761654      34.242765954251091
  2645  29      14.410817367406793      12.236804979255503       34.03846170566684
  2646  29      10.833648207525854      24.572251954660796       25.87420025382777
  2647  29      15.781167519313172      12.131432153776396      27.093721423803874
  2648  29      9.4631819648220539      24.466844203802946      32.819020250152661
  2649  29      16.914454907700055      12.127201724617089      32.131497930412948
  2650  29      8.3301717384028127      24.462772656240787      27.781369572579351
  2651  29      11.295631620942828      11.999837461637133      33.098623693413593
  2652  29      13.948820660677363      24.335166850423875      26.814164785940918
  2653  29      9.6653121883800086      11.952364513818241      28.935591594335058
  2654  29      15.579180089748526      24.287725517665439       30.97719763001712
  2655  29      12.779404810774864      12.596146886796117      28.526534953105749
  2656  29      12.465024185764314      0.2608024184501288      31.386041140409848
  2657   7      16.866615157661776       13.16252793543233      28.464236368513934
  2658   7      8.3779594026913209     0.82726927371295789      31.448480955688837
  2659   7      16.388368389722466      13.580313017767335      29.510066478708698
  2660   7      8.8561585610196847      1.2450908568329586      30.402657398674371
  2661   7      12.981811601455968      13.532462212208392      31.469989368586774
  2662   7      12.262588638929028      1.1971019363078106      28.442628477929262
  2663   7      9.5995951499364605      10.625318273549707      34.875774342923251
  2664   7      15.644726522681513      22.960666758137673      25.036834295890401
  2665   7      12.621923498321095      11.166191039501644      34.381214070712986
  2666   7      12.622488495908579      23.501581460785015      25.531445866072477
  2667   7      14.750584773770623      11.147716273738691      25.644141341258095
  2668   7       10.49393971011871      23.483109577817906      34.268605525904164
  2669   7      11.222295933051594      13.185466346318274      24.868720483543623
  2670   7      14.021999232114478     0.84991903137777636         35.044030972087
  2671   7      8.6687982330298894      9.8295841809892988      30.585170393076364
  2672   7       16.57573650509984      22.165030516620028      29.327476826684205
  2673   7      12.629619312795706      9.9521130351731291      34.572099595713851
  2674   7      12.614740628267695      22.287476142064598      25.340717949781364
  2675   7      13.195380089497455      13.803950557584743      30.340033778821379
  2676   7       12.04910272497639      1.4686485616657401       29.57258485936083
  2677   7      9.9306748353360206      13.043522886035616      32.006030311176701
  2678   7      15.313805750039659     0.70823177535944326      27.906579803472507
  2679   7      15.143472668167512       11.17443526817164      32.444998953562468
  2680   7      10.101080358314968      23.509893419893451      27.467669015364148
  2681   7      9.3444411255507056      9.4398374789000439      27.262260410182638
  2682   7      15.899855888943549      21.775123620351689       32.65046453037796
  2683   7       9.715942708124464      10.891262641246136      33.703784724174533
  2684   7      15.528477563149515      23.226616882547873      26.208829323333983
  2685   7      8.3080711403249641      12.748502255849623      25.701825610312387
  2686   7      16.936210836364424     0.41318285792323733      34.210953796064771
  2687   7      14.470365815584126      10.263664093851254      28.745078376732561
  2688   7      10.774185432415297      22.599192457254837      31.167481250907461
  2689   7      10.677890074862244      13.861688726122969      35.870742921496628
  2690   7      14.566437216999262       1.526124467644816      24.041986247250936
  2691   7      8.6548944145357378      11.055995507903249      30.490477617074426
  2692   7      16.589584926536993      23.391462361837807      29.422204375809205
  2693   7      11.935558297930136      10.367489897854041      31.544933267083003
  2694   7      13.308961449355898      22.702895485640489      28.367713305018647
  2695   7       16.97138717603249      13.867117020296531      25.225721672195384
  2696   7        8.27297969343463      1.5317776176260125      34.687079986881727
  2697   7      13.715924280210794      14.546224919192241       35.54076565172263
  2698   7      11.528400657016192      2.2108181570708196      24.371901959376601
  2699   7      14.488400560659388      11.472022938833959      28.523615617037816
  2700   7      10.755964117326513      23.807539056774505      31.388997704473105
  2701   7      11.535946372961822      11.058253037603986      29.287019675007151
  2702   7      13.708326374908047      23.393553517380031      30.625698710764588
  2703   7      13.696689291738924      13.622970552595124       26.99392292705889
  2704   7      11.547788597358977      1.2876342146913424      32.918826674737502
  2705   7      16.121752684645148       14.48829548922628      33.499781283801099
  2706   7      9.1227728803319632      2.1529796879064196      26.412903746112868
  2707   7      12.793373736409063      13.304448719558575      32.646780233239539
  2708   7      12.450996861696225     0.96899970930864998      27.265848150440345
  2709   7      11.904469674169691      11.001278494067611       26.06363224163799
  2710   7       13.33989140038015      23.336561490571292      33.849079807106463
  2711   7      9.1645040819273778      10.651218175126088      27.224829461612394
  2712   7       16.07993126797469      22.986487067726557      32.687929897177661
  2713   7      10.947304571563425      13.402855470945598      28.318387685637639
  2714   7      14.297135360241381      1.0676836370623417      31.594267775878066
  2715   7      13.854929051759711      13.331447552658377       35.68456566937094
  2716   7      11.389448318454686     0.99604047808493967      24.228091574139892
  2717   7      12.214354127578142      9.8154945920822882      26.145633686124061
  2718   7      13.029976900161124      22.150780686098887      33.767097129537632
  2719   7      15.290710238529378      10.867035451010793      24.585012727847765
  2720   7      9.9537295645965127      23.202369836009655      35.327687186059563
  2721   7      13.259573966866196      18.156997897878124      30.198534824044291
  2722   7       11.98482230820834      5.8215525601587963      29.714129736704269
  2723   7      16.327162154161464       6.358199125845684      35.834065230553222
  2724   7      8.9172315771694795      18.693639946343517      24.078408883202766
  2725   7      13.795146423232712      14.842018694049365      26.938697988928222
  2726   7      11.449385477574662      2.5066831859811973      32.974094266473514
  2727   7      16.155677061684401      13.267121387925366       33.64568957826657
  2728   7      9.0887587253725304      0.9318192347236558      26.266868920129518
  2729   7      10.013999954332148      14.264537538119555      31.884811940033348
  2730   7      15.230446648700216      1.9292361460699079      28.027831317875119
  2731   7      11.746395215551122      10.705285579883911      30.435137866799195
  2732   7      13.497978655991094      23.040672907373054      29.477545800442748
  2733   7      14.994770760134088      9.9550237452513315      32.401400739163861
  2734   7      10.249660016535861      22.290467361665808      27.511173156499073
  2735   7      8.6834672466981253      8.6640921647673643      30.666232466172914
  2736   7      16.561084652789564      20.999517869013861      29.246489387301953
  2737   7      10.685424927294683      14.471619313086363      27.781493974259554
  2738   7      14.559009584308161      2.1364320612183954       32.13121037010923
  2739   7      10.401742919337732      14.526414475799095      34.949221625096172
  2740   7      14.842697692835078      2.1908807030124691      24.963446740251069
  2741   7      14.812932657675248       8.803441947621188       32.34578269614066
  2742   7      10.431261454372542      21.138847622471669      27.566663222639818
  2743   7       12.53666837318135      8.6986446845332761      26.240091163037157
  2744   7      12.707604327862619      21.033934138998756      33.672769155363646
  2745   7      9.4897339928298319      8.2767719467432723      27.291204852164249
  2746   7      15.754414872479302      20.612072866913788      32.621455284631935
  2747   7      12.651135456899318      8.8077890002828418      34.809564292904142
  2748   7       12.59327559445585      21.143117151529864        25.1034451756551
  2749   7      15.463449248182817      10.631316752533447      35.498212392513608
  2750   7      9.7807764340830783      22.966643234173336      24.414390897723958
  2751   7      10.433176003940211      15.493088015014765      27.273208460835871
  2752   7      14.811098855009867      3.1579918363847641      32.639413476340181
  2753   7      14.472310612674669      9.1179647807888067      28.977412747765406
  2754   7      10.772333966494005      21.453476878156259      30.935231565923281
  2755   7      16.019816972000946      13.952763822825466      30.557065436675302
  2756   7      9.2246832994973929      1.6176705500844093      29.355684326136608
  2757   7      13.596651811245614      15.699131466681662      35.407376314471861
  2758   7      11.647649904326229      3.3637288188071022      24.505254065608327
  2759   7      9.6907385406128359      10.325096247245423      24.028627970414149
  2760   7      15.553559729990816      22.660457849735462      35.883971790227235
  2761   7      10.087527360295546       15.41868757004422      31.730538555105014
  2762   7      15.156945903456466      3.0833969398663568      28.182104552741144
  2763   7      16.099485336886104      15.647828031338125      33.378005682476235
  2764   7      9.1451002896873934      3.3124904349695226        26.5348454876274
  2765   6      9.0806009743948639      5.8150412878124209      24.377224252507162
  2766   6      16.163775673730413      18.150452435831994      35.535315629159257
  2767   1        8.92915215814749       5.639951050986757      25.445008217813932
  2768   1      16.315204089196182      17.975534783730716      34.467509830596541
  2769   1      8.9808540882597345       4.835709788237379      35.897791493019028
  2770   1      16.263585679431181      17.171088793727982      24.014706158030297
  2771   7      16.779006085286667      14.924144040106379      24.770892899758994
  2772   7      8.4653781307745373      2.5888013808335013      35.141913632724915
  2773   6      10.738652814453559      18.153981973816407      29.728990531251171
  2774   6      14.505787093993959      5.8183803638041232       30.18325190140304
  2775   1      10.770865147457149      19.124366060979252      29.224675206630774
  2776   1      14.473636990712194      6.7889213802253163       30.68729539170414
  2777   1      10.400112745800243      18.303508766337657      30.758508763263432
  2778   1      14.844147001038381      5.9675278420744435      29.153618452639616
  2779   1      9.9859224621797917      17.538666737986517      29.222548031985276
  2780   1      15.258579225707534       5.203158152801878      30.689725495727824
  2781   6      10.277790842860528      6.7151752012973667       24.13359803585524
  2782   6      14.966647488194589      19.050577061043505      35.778999019624791
  2783   1      10.335001323607525       6.735151527756468      35.065531369460089
  2784   1      14.909548092145965      19.070745024059836      24.847072444191046
  2785   1        11.1174267456027      6.3102711380802523      24.708409998332012
  2786   1      14.126911012516299      18.645638671904575      35.204383399873343
  2787   1      10.120883581404621      7.7432327691505662      24.471604311786404
  2788   1      15.123540100984014       20.07853904034269      35.440772427904804
  2789   6      13.479290925184539       19.45437069562054      29.421410807137558
  2790   6      11.765188892141897      7.1189383523099794      30.491327980578681
  2791   1      12.694520389156843      20.143299180227356      29.750644371324885
  2792   1      12.549858609859928      7.8079593435064742      30.162021565451333
  2793   1      14.434461839598377      19.857317013983582      29.769629745461387
  2794   1      10.809938653220968      7.5219468757058259      30.143327372441497
  2795   6      13.056866339784735      18.564418191770365      31.651023865862467
  2796   6      12.187423433099386      6.2289667762309149      28.261660327056273
  2797   1      12.184423806162687      19.224296608301113      31.665992271855917
  2798   1      13.059713971458752      6.8890580216619508      28.246657548064633
  2799   1      13.920728814673073      19.180310266618623      31.918492246861192
  2800   1       11.32338369018666      6.8446293322218938      27.994372911539489
  2801   6      15.753489293897996      17.718136612430165      30.679893716631547
  2802   6      9.4908980580680566      5.3825508996964428      29.232757471033914
  2803   1      16.086263663850985      18.680333603759411      30.280544684735059
  2804   1       9.157805902275344      6.3444542331415716      29.632454263192272
  2805   1      16.526990226699983      16.971433368491873      30.460189340001737
  2806   1      8.7175460529084354      4.6356721396336642      29.452337124703806
  2807   1      15.685849902676935      17.791978415363342      31.768318523808432
  2808   1      9.5586886995344216      5.4568244066751976      28.144361406284887
  2809   7      13.928864546133624      16.004078957677098      26.843360389258422
  2810   7      11.315769451120891      3.6687601341871758      33.069442551146672
  2811   6      12.052266803144983      17.397860820240187      29.657310317840896
  2812   6      13.192133317353505      5.0623684971672516      30.255282153539934
  2813   1      12.302577849412691      17.131174135553241      28.626223354994156
  2814   1       12.94207841876371      4.7957782978546328      31.286469121615717
  2815   1      11.994386890101339      16.463751590042879      30.222764918588581
  2816   1      13.249847232791996      4.1281982149447334      29.689902012578766
  2817   6      14.462725211795426      17.224058484940198      30.052652071008055
  2818   6      10.781661539930731      4.8886291949181357      29.860031352727379
  2819   1       14.16338862552846      16.265743407379603      30.489490752866875
  2820   1      11.080966481994945      3.9303133433968256      29.423213090938802
  2821   1      14.582400932259029      17.053060995391068       28.97841138501796
  2822   1      10.661889766359506      4.7177302510383994      30.934285151115603
  2823   6      13.969767823150512      5.5563590381315855      35.271511715140448
  2824   6      11.274558249030811      17.891759831047121      24.641163332249171
  2825   1      13.981844172528884      5.6457528787743385      34.181045324583692
  2826   1      11.262110994935187      17.981093610768429      25.731631304012623
  2827   1      13.568625426355538      6.4850086965123728      35.688707692699055
  2828   1      11.675773553627049        18.8203936328023      24.224049689329377
  2829   1      13.271190944337317      4.7491306457133238      35.522341893662052
  2830   1      11.973086594136147      17.084406521657112      24.390533345539474
  2831   6      15.338315579667979      5.1973067909990647      35.819286524596841
  2832   6       9.906072246655711      17.532753297202717      24.093196199043227
  2833   1      15.532801355525134      4.8212400328999223      24.862940478806863
  2834   1      9.7116819388891038      17.156677701708833      35.049532148043937
  2835   1      15.798473811372745      4.4051990215608514      35.224142806656232
  2836   1      9.4459743449351361      16.740665101097083      24.688418366775625
  2837   6      12.890703146524359      17.406115437383285       32.61479456952452
  2838   6      12.353657064996046      5.0707361932031754      27.297901543580561
  2839   1      12.002276476393879      16.801098457719124      32.409100918942904
  2840   1       13.24227169798581      4.4659752043824481        27.5033585769824
  2841   1      12.772170078814915      17.823526121220549      33.620993932397937
  2842   1      12.471985787124506      5.4882233757567933      26.291758245428852
  2843   1       13.76884006174182      16.754174612696524      32.649984295850878
  2844   1      11.475707080986595      4.4185593352531827      27.262757781460738
  2845   6      16.485714745776015      6.9503331200564276      34.443560635932911
  2846   6      8.7587334251514655      19.285906022624101      25.468862670093142
  2847   1      8.3437169978859327      7.7981821141425023      34.546613616795192
  2848   1      16.900608348170724      20.133634369117758      25.365672890974121
  2849   1      15.512732760043676      7.3642207812651685      34.163646104318062
  2850   1      9.7317537940656855      19.699776009461164      25.748707142378194
  2851   6       8.144786519069676       5.965943578874108      33.394326637576874
  2852   6      17.099735168858921      18.301606535959937      26.518195409566385
  2853   1       8.314680597713048      6.5320192545423508      32.469526796397723
  2854   1      16.929633503832434      18.867676725044102      27.442966163728745
  2855   1      16.231376053693403      5.1871049620097427      33.181995232020867
  2856   1      9.0132724653692549      17.522891602786267      26.730491758784179
  2857   1      9.0852693876624464      5.4790151631534005       33.67300743698889
  2858   1      16.159403798835747      17.814410485259106      26.239521420901941
  2859   6       13.46410359266962      19.308466585677252      27.911366557397464
  2860   6       11.78061170373511      6.9729655180714776      32.001432620588048
  2861   1      12.451844353305983      19.162798180880852        27.5236011837838
  2862   1      12.792870367700793      6.8268671713730971      32.389135151745521
  2863   1      14.097568696482128      18.492595972829818      27.557372826066985
  2864   1      11.146855907381262      6.1572489972820854      32.355356753837938
  2865   1      13.842725056519171      20.241570642150119      27.480071079196378
  2866   1      11.402388004498698      7.9061557159024183      32.432941673517099
  2867   6      16.078994483440709      7.4831764737101922      24.762463233022583
  2868   6      9.1654660774034209      19.818589304264115      35.149974534639327
  2869   1      16.924290847537137      8.1670167744207252      24.883258225648742
  2870   1      8.3202046409727792      20.502438745466399      35.029122870274065
  2871   1      15.303044842708182      8.0164373602538213      24.204186951034082
  2872   1      9.9414147798009989      20.351869042521386      35.708239366647561
  2873   6      15.542764491575619      7.0164749865971094      26.102885063155334
  2874   6      9.7016319195224856      19.351817399404336      33.809561819114244
  2875   1       14.58341640683366      6.5043061648631779      25.992133859936427
  2876   1      10.660982307586711      18.839662679404082      33.920323509498012
  2877   1      15.373013891259681      7.8959542030971308      26.734866673054466
  2878   1      9.8713515765895306      20.231220145326894       33.17745114460363
  2879   1      16.238913801188566      6.3621883105350658      26.636266154754029
  2880   1      9.0053804469728131      18.697490251765089      33.276366560482742
  2881  29      13.589343921934201      37.065201425469574      1.2156974010452735
  2882  29      12.641374925273086      24.729869880138683      10.766810207337304
  2883  29      10.530602483792734      36.373371527451283      1.7047931139663628
  2884  29      15.699966959366698       48.70871927762299      10.277710443304878
  2885  29      14.903938618643281      36.907577478116842      10.073406194720627
  2886  29      11.326769458762342      49.243024453522139      1.9091447428815596
  2887  29       16.27428877054966      36.802204652637734       3.128665912857663
  2888  29      9.9563032160585418      49.137616702664289      8.8539647392064484
  2889  29      17.407576158936543      36.797974223478427      8.1664424194667404
  2890  29      8.8232929896393006      49.133545155102127      3.8163140616331384
  2891  29      11.788752872179316      36.670609960498467      9.1335681824673802
  2892  29      14.441941911913851      49.005939349285214      2.8491092749947078
  2893  29      10.158433439616497      36.623137012679578       4.970536083388847
  2894  29      16.072301340985014      48.958498016526775      7.0121421190709086
  2895  29      13.272526062011352      37.266919385657452      4.5614794421595377
  2896  29      12.958145437000802      24.931574917311465      7.4209856294636376
  2897   7      17.359736408898264      37.833300434293669      4.4991808575677226
  2898   7      8.8710806539278089      25.498041772574297      7.4834254447426245
  2899   7      16.881489640958954       38.25108551662867      5.5450109677624866
  2900   7      9.3492798122561727      25.915863355694295      6.4376018877281602
  2901   7      13.474932852692456      38.203234711069726      7.5049338576405642
  2902   7      12.755709890165516      25.867874435169149      4.4775729669830495
  2903   7      10.092716401172948      35.296090772411048      10.910718831977039
  2904   7      16.137847773918001      47.631439256999016      1.0717787849441902
  2905   7      13.115044749557583       35.83696353836298      10.416158559766773
  2906   7      13.115609747145067      48.172353959646358       1.566390355126267
  2907   7      15.243706025007111      35.818488772600027       1.679085830311885
  2908   7      10.987060961355198      48.153882076679245      10.303550014957949
  2909   7      11.715417184288082      37.856238845179611     0.90366497259741219
  2910   7      14.515120483350966      25.520691530239116      11.078975461140789
  2911   7      9.1619194842663774       34.50035667985064      6.6201148821301521
  2912   7      17.068857756336328      46.835803015481368      5.3624213157379943
  2913   7      13.122740564032194      34.622885534034467      10.607044084767642
  2914   7      13.107861879504183      46.958248640925937      1.3756624388351535
  2915   7      13.688501340733943      38.474723056446081       6.374978267875167
  2916   7      12.542223976212878      26.139421060527077      5.6075293484146211
  2917   7      10.423796086572509      37.714295384896957      8.0409748002304884
  2918   7      15.806927001276147      25.379004274220783      3.9415242925262959
  2919   7         15.636593919404      35.845207767032974      8.4799434426162552
  2920   7      10.594201609551456      48.180665918754791      3.5026135044179361
  2921   7      9.8375623767871936      34.110609977761385      3.2972048992364256
  2922   7      16.392977140180037      46.445896119213032      8.6854090194317504
  2923   7      10.209063959360952      35.562035140107476      9.7387292132283196
  2924   7      16.021598814386003      47.897389381409212      2.2437738123877731
  2925   7      8.8011923915614521      37.419274754710962      1.7367700993661772
  2926   7      17.429332087600912      25.083955356784575      10.245898285118564
  2927   7      14.963487066820614      34.934436592712593      4.7800228657863491
  2928   7      11.267306683651785      47.269964956116176      7.2024257399612486
  2929   7      11.171011326098732      38.532461224984303      11.905687410550415
  2930   7       15.05955846823575      26.196896966506152    0.076930736304725078
  2931   7      9.1480156657722258      35.726768006764587      6.5254221061282127
  2932   7      17.082706177773481      48.062234860699149      5.4571488648629929
  2933   7      12.428679549166624      35.038262396715382      7.5798777561367912
  2934   7      13.802082700592386      47.373667984501829      4.4026577940724367
  2935   7      17.464508427268978      38.537889519157872      1.2606661612491736
  2936   7       8.766100944671118      26.202550116487352       10.72202447593552
  2937   7      14.209045531447282       39.21699741805358      11.575710140776419
  2938   7       12.02152190825268      26.881590655932158     0.40684644843038786
  2939   7      14.981521811895876      36.142795437695298      4.5585601060916048
  2940   7      11.249085368563001      48.478311555635841      7.4239421935268934
  2941   7       12.02906762419831      35.729025536465322      5.3219641640609412
  2942   7      14.201447626144535      48.064326016241367      6.6606431998183764
  2943   7      14.189810542975412       38.29374305145646      3.0288674161126767
  2944   7      12.040909848595465       25.95840671355268      8.9537711637912931
  2945   7      16.614873935881636      39.159067988087614      9.5347257728548875
  2946   7      9.6158941315684512      26.823752186767756      2.4478482351666573
  2947   7       13.28649498764555      37.975221218419911      8.6817247222933318
  2948   7      12.944118112932713      25.639772208169987      3.3007926394941349
  2949   7      12.397590925406179      35.672050992928945      2.0985767306917804
  2950   7      13.833012651616638      48.007333989432631      9.8840242961602485
  2951   7      9.6576253331638657      35.321990673987429       3.259773950666184
  2952   7      16.573052519211178      47.657259566587896      8.7228743862314513
  2953   7      11.440425822799913      38.073627969806935      4.3533321746914284
  2954   7      14.790256611477869      25.738456135923681      7.6292122649318568
  2955   7      14.348050302996199      38.002220051519714      11.719510158424725
  2956   7      11.882569569691174      25.666812976946279     0.26303606319368061
  2957   7       12.70747537881463      34.486267090943628      2.1805781751778497
  2958   7      13.523098151397612      46.821553184960223       9.802041618591419
  2959   7      15.783831489765866      35.537807949872132     0.61995721690155225
  2960   7      10.446850815833001      47.873142334870991      11.362631675113349
  2961   7      13.752695218102684      42.827770396739467      6.2334793130980799
  2962   7      12.477943559444828      30.492325059020136      5.7490742257580587
  2963   7      16.820283405397952      31.028971624707022      11.869009719607009
  2964   7      9.4103528284059674      43.364412445204856     0.11335337225655616
  2965   7        14.2882676744692      39.512791192910704      2.9736424779820125
  2966   7       11.94250672881115      27.177455684842535      9.0090387555273015
  2967   7      16.648798312920889      37.937893886786703      9.6806340673203568
  2968   7      9.5818799766090184      25.602591733584994      2.3018134091833065
  2969   7      10.507121205568636      38.935310036980894      7.9197564290871378
  2970   7      15.723567899936704      26.600008644931247      4.0627758069289097
  2971   7       12.23951646678761      35.376058078745245      6.4700823558529832
  2972   7      13.991099907227582       47.71144540623439      5.5124902894965349
  2973   7      15.487892011370576      34.625796244112671      8.4363452282176503
  2974   7      10.742781267772349      46.961239860527144       3.546117645552862
  2975   7      9.1765884979346133        33.3348646636287      6.7011769552267015
  2976   7      17.054205904026052      45.670290367875197      5.2814338763557416
  2977   7      11.178546178531171      39.142391811947704      3.8164384633133417
  2978   7      15.052130835544649      26.807204560079732      8.1661548591630222
  2979   7       10.89486417057422      39.197186974660433      10.984166114149959
  2980   7      15.335818944071566      26.861653201873807     0.99839122930485635
  2981   7      15.306053908911736      33.474214446482527      8.3807271851944467
  2982   7       10.92438270560903      45.809620121333012      3.6016077116936072
  2983   7      13.029789624417838      33.369417183394617      2.2750356520909465
  2984   7      13.200725579099107      45.704706637860099       9.707713644417435
  2985   7      9.9828552440663199      32.947544445604606      3.3261493412180396
  2986   7       16.24753612371579      45.282845365775131      8.6563997736857257
  2987   7      13.144256708135806      33.478561499144178      10.844508781957927
  2988   7      13.086396845692338      45.813889650391204      1.1383896647088887
  2989   7      15.956570499419305      35.302089251394783      11.533156881567393
  2990   7      10.273897685319566      47.637415733034672     0.44933538677774715
  2991   7      10.926297255176699      40.163860513876102        3.30815294988966
  2992   7      15.304220106246355      27.828764335246102      8.6743579653939733
  2993   7      14.965431863911157      33.788737279650142      5.0123572368191969
  2994   7      11.265455217730493      46.124249377017598      6.9701760549770704
  2995   7      16.512938223237434        38.6235363216868      6.5920099257290907
  2996   7      9.7178045507338808      26.288443048945748      5.3906288151903956
  2997   7      14.089773062482102      40.369903965543003      11.442320803525647
  2998   7      12.140771155562717       28.03450131766844     0.54019855466211697
  2999   7      10.183859791849324      34.995868746106758    0.063572459467938755
  3000   7      16.046680981227304      47.331230348596804      11.918916279281023
  3001   7      10.580648611532034      40.089460068905559      7.7654830441588034
  3002   7      15.650067154692954      27.754169438727693      4.2170490417949322
  3003   7      16.592606588122592      40.318600530199461      9.4129501715300243
  3004   7      9.6382215409238814      27.983262933830861      2.5697899766811876
  3005   6      9.5737222256313519      30.485813786673759     0.41216874156095079
  3006   6      16.656896924966901      42.821224934693333      11.570260118213042
  3007   1      9.4222734093839779      30.310723549848095      1.4799527068677203
  3008   1       16.80832534043267      42.646307282592055      10.502454319650329
  3009   1      9.4739753394962225      29.506482287098716      11.932735982072813
  3010   1      16.756706930667669      41.841861292589321    0.049650647084087035
  3011   7      17.272127336523155      39.594916538967716     0.80583738881278266
  3012   7      8.9584993820110252      27.259573879694841      11.176858121778706
  3013   6      11.231774065690047      42.824754472677746      5.7639350203049595
  3014   6      14.998908345230447      30.489152862665463      6.2181963904568294
  3015   1      11.263986398693637      43.795138559840595      5.2596196956845622
  3016   1      14.966758241948682      31.459693879086654      6.7222398807579298
  3017   1      10.893233997036731      42.974281265198996        6.79345325231722
  3018   1      15.337268252274869      30.638300340935782      5.1885629416934043
  3019   1       10.47904371341628      42.209439236847857      5.2574925210390653
  3020   1      15.751700476944022      29.873930651663215       6.724669984781614
  3021   6      10.770912094097016      31.385947700158706     0.16854252490902921
  3022   6      15.459768739431077      43.721349559904844      11.813943508678584
  3023   1      10.828122574844013      31.405924026617807       11.10047585851388
  3024   1      15.402669343382453      43.741517522921171      0.8820169332448351
  3025   1      11.610547996839188      30.981043636941592     0.74335448738580023
  3026   1      14.620032263752787      43.316411170765917       11.23932788892713
  3027   1      10.614004832641109      32.414005268011906     0.50654880084019216
  3028   1      15.616661352220502      44.749311539204029      11.475716916958596
  3029   6      13.972412176421027      44.125143194481879      5.4563552961913473
  3030   6      12.258310143378385      31.789710851171318      6.5262724696324712
  3031   1      13.187641640393331      44.814071679088698      5.7855888603786729
  3032   1      13.042979861096416      32.478731842367814      6.1969660545051228
  3033   1      14.927583090834865      44.528089512844922      5.8045742345151758
  3034   1      11.303059904457456      32.192719374567162      6.1782718614952854
  3035   6      13.549987591021223      43.235190690631704      7.6859683549162563
  3036   6      12.680544684335874      30.899739275092251      4.2966048161100616
  3037   1      12.677545057399175      43.895069107162456      7.7009367609097064
  3038   1       13.55283522269524      31.559830520523288      4.2816020371184234
  3039   1      14.413850065909561      43.851082765479958      7.9534367359149813
  3040   1      11.816504941423148      31.515401831083231      4.0293174005932784
  3041   6      16.246610545134484      42.388909111291504      6.7148382056853375
  3042   6      9.9840193093045446      30.053323398557779      5.2677019600877015
  3043   1      16.579384915087473      43.351106102620747      6.3154891737888477
  3044   1      9.6509271535118319      31.015226732002908      5.6673987522460632
  3045   1      17.020111477936471      41.642205867353212      6.4951338290555247
  3046   1      9.2106673041449234      29.306444638495002      5.4872816137575953
  3047   1      16.178971153913423      42.462750914224685      7.8032630128622218
  3048   1       10.05180995077091      30.127596905536535      4.1793058953386746
  3049   7      14.421985797370112      40.674851456538434      2.8783048783122096
  3050   7      11.808890702357379      28.339532633048513      9.1043870402004607
  3051   6      12.545388054381471      42.068633319101522      5.6922548068946845
  3052   6      13.685254568589993      29.733140996028588      6.2902266425937228
  3053   1      12.795699100649179      41.801946634414577      4.6611678440479443
  3054   1      13.435199670000198      29.466550796715971      7.3214136106695067
  3055   1      12.487508141337827      41.134524088904215       6.257709407642368
  3056   1      13.742968484028484      28.798970713806071      5.7248465016325545
  3057   6      14.955846463031914       41.89483098380154      6.0875965600618427
  3058   6      11.274782791167219      29.559401693779474      5.8949758417811671
  3059   1      14.656509876764948      40.936515906240942      6.5244352419206626
  3060   1      11.574087733231433      28.601085842258165      5.4581575799925917
  3061   1      15.075522183495517      41.723833494252403      5.0133558740717481
  3062   1      11.155011017595994      29.388502749899736      6.9692296401693898
  3063   6         14.462889074387      30.227131536992925      11.306456204194236
  3064   6      11.767679500267299      42.562532329908464     0.67610782130296165
  3065   1      14.474965423765372      30.316525377635678       10.21598981363748
  3066   1      11.755232246171675      42.651866109629765      1.7665757930664105
  3067   1      14.061746677592026      31.155781195373713      11.723652181752843
  3068   1      12.168894804863537       43.49116613166364     0.25899417838316663
  3069   1      13.764312195573805      29.419903144574661      11.557286382715841
  3070   1      12.466207845372635      41.755179020518455     0.42547783459326416
  3071   6      15.831436830904467      29.868079289860404      11.854231013650629
  3072   6      10.399193497892199      42.203525796064056      0.1281406880970157
  3073   1      16.025922606761622      29.492012531761262     0.89788496786065197
  3074   1      10.204803190125592      41.827450200570169       11.08447663709773
  3075   1      16.291595062609233       29.07597152042219      11.259087295710025
  3076   1      9.9390955961716241      41.411437599958418     0.72336285582941362
  3077   6      13.383824397760847      42.076887936244624      8.6497390585783123
  3078   6      12.846778316232534      29.741508692064514      3.3328460326343503
  3079   1      12.495397727630367       41.47187095658046      8.4440454079966951
  3080   1      13.735392949222298      29.136747703243785      3.5383030660361872
  3081   1      13.265291330051403      42.494298620081892      9.6559384214517223
  3082   1      12.965107038360994      30.158995874618132      2.3267027344826414
  3083   1      14.261961312978308      41.424947111557863       8.684928784904665
  3084   1      11.968828332223083      29.089331834114521      3.2977022705145274
  3085   6      16.978835997012503      31.621105618917767      10.478505124986702
  3086   6      9.2518546763879534      43.956678521485443      1.5038071591469302
  3087   1      8.8368382491224207      32.468954613003838      10.581558105848979
  3088   1      17.393729599407212      44.804406867979097      1.4006173800279111
  3089   1      16.005854011280164      32.034993280126507      10.198590593371854
  3090   1      10.224875045302174        44.3705485083225      1.7836516314319844
  3091   6       8.637907770306164      30.636716077735446       9.429271126630665
  3092   6      17.592856420095409      42.972379034821273      2.5531398986201723
  3093   1       8.807801848949536      31.202791753403687      8.5044712854515137
  3094   1      17.422754755068922      43.538449223905445      3.4779106527825343
  3095   1      16.724497304929891       29.85787746087108      9.2169397210746542
  3096   1      9.5063937166057428      42.193664101647606      2.7654362478379682
  3097   1      9.5783906388989344      30.149787662014738      9.7079519260426785
  3098   1      16.652525050072235      42.485182984120442      2.2744659099557287
  3099   6      13.957224843906108      43.979239084538591      3.9463110464512514
  3100   6      12.273732954971598      31.643738016932815      8.0363771096418386
  3101   1      12.944965604542471      43.833570679742195      3.5585456728375893
  3102   1      13.285991618937281      31.497639670234435       8.424079640799313
  3103   1      14.590689947718616      43.163368471691157      3.5923173151207748
  3104   1       11.63997715861775      30.828021496143425      8.3903012428917254
  3105   1      14.335846307755659      44.912343141011462      3.5150155682501687
  3106   1      11.895509255735186      32.576928214763754      8.4678861625708883
  3107   6      16.572115734677197      32.153948972571527     0.79740772207637278
  3108   6      9.6585873286399089      44.489361803125455      11.184919023693116
  3109   1      17.417412098773625      32.837789273282063     0.91820271470253068
  3110   1      8.8133258922092672      45.173211244327739      11.064067359327856
  3111   1       15.79616609394467      32.687209859115157     0.23913144008786985
  3112   1      10.434536031037487      45.022641541382725      11.743183855701348
  3113   6      16.035885742812106       31.68724748545845      2.1378295522091237
  3114   6      10.194753170758974      44.022589898265679      9.8445063081680342
  3115   1      15.076537658070148      31.175078663724516      2.0270783489902171
  3116   1      11.154103558823198      43.510435178265425      9.9552679985518022
  3117   1      15.866135142496169      32.566726701958473       2.769811162108256
  3118   1      10.364472827826019      44.901992644188233      9.2123956336574171
  3119   1      16.732035052425054      31.032960809396403      2.6712106438078189
  3120   1      9.4985016982093011      43.368262750626428      9.3113110495365348
  3121  29      13.342782485632451       37.06519984569028      13.198225156518379
  3122  29      12.394813488971336      24.729868300359392      22.749337962810408
  3123  29      10.284041047490984      36.373369947671989      13.687320869439468
  3124  29      15.453405523064948      48.708717697843703      22.260238198777984
  3125  29      14.657377182341531      36.907575898337548      22.055933950193733
  3126  29      11.080208022460592      49.243022873742845      13.891672498354666
  3127  29       16.02772733424791      36.802203072858447      15.111193668330769
  3128  29      9.7097417797567918      49.137615122884995      20.836492494679554
  3129  29      17.161014722634789       36.79797264369914      20.148970174939848
  3130  29      8.5767315533375506      49.133543575322832      15.798841817106243
  3131  29      11.542191435877566       36.67060838071918      21.116095937940486
  3132  29      14.195380475612101       49.00593776950592      14.831637030467814
  3133  29      9.9118720033147465      36.623135432900284      16.953063838861951
  3134  29      15.825739904683264      48.958496436747488      18.994669874544016
  3135  29      13.025964625709602      37.266917805878165      16.544007197632645
  3136  29      12.711584000699052      24.931573337532175      19.403513384936744
  3137   7      17.113174972596514      37.833298854514375       16.48170861304083
  3138   7      8.6245192176260588      25.498040192795006      19.465953200215729
  3139   7      16.634928204657207      38.251083936849383      17.527538723235594
  3140   7      9.1027183759544226      25.915861775915005      18.420129643201264
  3141   7      13.228371416390706      38.203233131290439       19.48746161311367
  3142   7      12.509148453863766      25.867872855389859      16.460100722456154
  3143   7      9.8461549648711983      35.296089192631754      22.893246587450143
  3144   7      15.891286337616251      47.631437677219722      13.054306540417295
  3145   7      12.868483313255833      35.836961958583693      22.398686315239878
  3146   7      12.869048310843317      48.172352379867064      13.548918110599372
  3147   7       14.99714458870536       35.81848719282074      13.661613585784991
  3148   7      10.740499525053448      48.153880496899959      22.286077770431056
  3149   7      11.468855747986332      37.856237265400324      12.886192728070517
  3150   7      14.268559047049216      25.520689950459825      23.061503216613893
  3151   7      8.9153580479646273      34.500355100071346      18.602642637603257
  3152   7      16.822296320034578      46.835801435702081      17.344949071211101
  3153   7      12.876179127730444      34.622883954255173      22.589571840240747
  3154   7      12.861300443202433       46.95824706114665      13.358190194308259
  3155   7      13.441939904432193      38.474721476666787      18.357506023348272
  3156   7      12.295662539911127      26.139419480747787      17.590057103887727
  3157   7      10.177234650270758      37.714293805117663      20.023502555703594
  3158   7      15.560365564974397      25.379002694441489      15.924052047999401
  3159   7      15.390032483102249      35.845206187253687      20.462471198089361
  3160   7      10.347640173249706      48.180664338975504      15.485141259891041
  3161   7      9.5910009404854435      34.110608397982091       15.27973265470953
  3162   7      16.146415703878287      46.445894539433738      20.667936774904856
  3163   7      9.9625025230592019      35.562033560328182      21.721256968701425
  3164   7      15.775037378084253      47.897387801629918       14.22630156786088
  3165   7       8.554630955259702      37.419273174931668      13.719297854839283
  3166   7      17.182770651299158      25.083953777005284      22.228426040591671
  3167   7      14.716925630518864      34.934435012933299      16.762550621259454
  3168   7      11.020745247350035      47.269963376336889      19.184953495434353
  3169   7      10.924449889796982      38.532459645205016      23.888215166023521
  3170   7         14.812997031934      26.196895386726865       12.05945849177783
  3171   7      8.9014542294704757      35.726766426985293      18.507949861601318
  3172   7      16.836144741471728      48.062233280919855      17.439676620336098
  3173   7      12.182118112864874      35.038260816936088      19.562405511609896
  3174   7      13.555521264290636      47.373666404722542      16.385185549545543
  3175   7      17.217946990967228      38.537887939378578       13.24319391672228
  3176   7      8.5195395083693679      26.202548536708061      22.704552231408627
  3177   7      13.962484095145532      39.216995838274286      23.558237896249523
  3178   7       11.77496047195093      26.881589076152867      12.389374203903493
  3179   7      14.734960375594126      36.142793857916004      16.541087861564712
  3180   7      11.002523932261251      48.478309975856554      19.406469948999998
  3181   7       11.78250618789656      35.729023956686035      17.304491919534048
  3182   7      13.954886189842785       48.06432443646208      18.643170955291481
  3183   7      13.943249106673662      38.293741471677173      15.011395171585782
  3184   7      11.794348412293715       25.95840513377339      20.936298919264399
  3185   7      16.368312499579886      39.159066408308327      21.517253528327991
  3186   7      9.3693326952667011      26.823750606988469      14.430375990639764
  3187   7        13.0399335513438      37.975219638640624      20.664252477766439
  3188   7      12.697556676630963      25.639770628390696      15.283320394967241
  3189   7      12.151029489104429      35.672049413149658      14.081104486164886
  3190   7      13.586451215314888      48.007332409653344      21.866552051633356
  3191   7      9.4110638968621156      35.321989094208135       15.24230170613929
  3192   7      16.326491082909428      47.657257986808602      20.705402141704557
  3193   7      11.193864386498163      38.073626390027641      16.335859930164535
  3194   7      14.543695175176119       25.73845455614439      19.611740020404962
  3195   7      14.101488866694449       38.00221847174042      23.702037913897833
  3196   7      11.636008133389424      25.666811397166988      12.245563818666787
  3197   7       12.46091394251288      34.486265511164333      14.163105930650955
  3198   7      13.276536715095862      46.821551605180936      21.784569374064525
  3199   7      15.537270053464116      35.537806370092838      12.602484972374658
  3200   7      10.200289379531251      47.873140755091704      23.345159430586456
  3201   7      13.506133781800933      42.827768816960173      18.216007068571187
  3202   7      12.231382123143078      30.492323479240845      17.731601981231165
  3203   7      16.573721969096205      31.028970044927732      23.851537475080114
  3204   7      9.1637913921042173      43.364410865425569      12.095881127729662
  3205   7       14.04170623816745       39.51278961313141      14.956170233455119
  3206   7        11.6959452925094      27.177454105063244      20.991566511000407
  3207   7      16.402236876619138      37.937892307007417      21.663161822793462
  3208   7      9.3353185403072683      25.602590153805703      14.284341164656412
  3209   7      10.260559769266886        38.9353084572016      19.902284184560244
  3210   7      15.477006463634954      26.600007065151956      16.045303562402015
  3211   7      11.992955030485859      35.376056498965958      18.452610111326088
  3212   7      13.744538470925832      47.711443826455103       17.49501804496964
  3213   7      15.241330575068826      34.625794664333377      20.418872983690754
  3214   7      10.496219831470599      46.961238280747857      15.528645401025967
  3215   7      8.9300270616328632      33.334863083849413      18.683704710699807
  3216   7      16.807644467724302       45.67028878809591      17.263961631828849
  3217   7      10.931984742229421       39.14239023216841      15.798966218786447
  3218   7      14.805569399242898      26.807202980300442       20.14868261463613
  3219   7       10.64830273427247      39.197185394881146      22.966693869623064
  3220   7      15.089257507769815      26.861651622094517      12.980918984777961
  3221   7      15.059492472609985      33.474212866703233      20.363254940667552
  3222   7       10.67782126930728      45.809618541553718      15.584135467166712
  3223   7      12.783228188116087      33.369415603615323      14.257563407564053
  3224   7      12.954164142797357      45.704705058080805      21.690241399890539
  3225   7      9.7362938077645698      32.947542865825319      15.308677096691145
  3226   7       16.00097468741404      45.282843785995837      20.638927529158831
  3227   7      12.897695271834056      33.478559919364891      22.827036537431034
  3228   7      12.839835409390588       45.81388807061191      13.120917420181994
  3229   7      15.710009063117555      35.302087671615496      23.515684637040501
  3230   7      10.027336249017816      47.637414153255385      12.431863142250853
  3231   7      10.679735818874949      40.163858934096808      15.290680705362766
  3232   7      15.057658669944605      27.828762755466812      20.656885720867081
  3233   7      14.718870427609406      33.788735699870855      16.994884992292302
  3234   7      11.018893781428742      46.124247797238311      18.952703810450174
  3235   7      16.266376786935684      38.623534741907513      18.574537681202195
  3236   7      9.4712431144321307      26.288441469166457        17.3731565706635
  3237   7      13.843211626180352      40.369902385763709      23.424848558998754
  3238   7      11.894209719260967      28.034499737889149      12.522726310135223
  3239   7      9.9372983555475738      34.995867166327471      12.046100214941044
  3240   7      15.800119544925554       47.33122876881751      23.901444034754128
  3241   7      10.334087175230284      40.089458489126265       19.74801079963191
  3242   7      15.403505718391203      27.754167858948403      16.199576797268037
  3243   7      16.346045151820842      40.318598950420174      21.395477927003128
  3244   7      9.3916601046221313      27.983261354051571      14.552317732154293
  3245   6      9.3271607893296018      30.485812206894469      12.394696497034056
  3246   6      16.410335488665151      42.821223354914039       23.55278787368615
  3247   1      9.1757119730822279      30.310721970068805      13.462480462340826
  3248   1       16.56176390413092      42.646305702812768      22.484982075123433
  3249   1      9.2274139031944724      29.506480707319426      23.915263737545921
  3250   1      16.510145494365918      41.841859712810034      12.032178402557193
  3251   7      17.025565900221405      39.594914959188429      12.788365144285889
  3252   7      8.7119379457092752      27.259572299915547      23.159385877251811
  3253   6      10.985212629388297      42.824752892898459      17.746462775778063
  3254   6      14.752346908928697      30.489151282886169      18.200724145929936
  3255   1      11.017424962391887      43.795136980061301      17.242147451157667
  3256   1      14.720196805646932      31.459692299307363      18.704767636231036
  3257   1      10.646672560734981      42.974279685419702      18.775981007790325
  3258   1      15.090706815973119      30.638298761156491      17.171090697166509
  3259   1       10.23248227711453      42.209437657068563      17.240020276512169
  3260   1      15.505139040642272      29.873929071883925       18.70719774025472
  3261   6      10.524350657795265      31.385946120379415      12.151070280382134
  3262   6      15.213207303129327      43.721347980125557      23.796471264151691
  3263   1      10.581561138542263      31.405922446838517      23.083003613986985
  3264   1      15.156107907080703      43.741515943141884       12.86454468871794
  3265   1      11.363986560537437      30.981042057162298      12.725882242858905
  3266   1      14.373470827451037      43.316409590986623      23.221855644400236
  3267   1      10.367443396339359      32.414003688232611      12.489076556313298
  3268   1      15.370099915918752      44.749309959424735      23.458244672431704
  3269   6      13.725850740119277      44.125141614702585      17.438883051664455
  3270   6      12.011748707076634      31.789709271392027      18.508800225105578
  3271   1       12.94108020409158      44.814070099309404      17.768116615851778
  3272   1      12.796418424794666       32.47873026258852      18.179493809978229
  3273   1      14.681021654533115      44.528087933065635       17.78710198998828
  3274   1      11.056498468155706      32.192717794787875       18.16079961696839
  3275   6      13.303426154719473      43.235189110852417      19.668496110389363
  3276   6      12.433983248034124      30.899737695312965      16.279132571583169
  3277   1      12.430983621097425      43.895067527383162      19.683464516382813
  3278   1       13.30627378639349      31.559828940743998      16.264129792591529
  3279   1       14.16728862960781      43.851081185700671      19.935964491388088
  3280   1      11.569943505121397      31.515400251303941      16.011845156066386
  3281   6      16.000049108832734      42.388907531512217      18.697365961158443
  3282   6      9.7374578730027945      30.053321818778493      17.250229715560806
  3283   1      16.332823478785727       43.35110452284146      18.298016929261955
  3284   1      9.4043657172100819      31.015225152223621      17.649926507719169
  3285   1      16.773550041634721      41.642204287573918      18.477661584528629
  3286   1      8.9641058678431733      29.306443058715711      17.469809369230703
  3287   1      15.932409717611673      42.462749334445391      19.785790768335328
  3288   1      9.8052485144691595      30.127595325757245      16.161833650811779
  3289   7      14.175424361068362      40.674849876759147      14.860832633785314
  3290   7      11.562329266055629      28.339531053269223      21.086914795673565
  3291   6      12.298826618079721      42.068631739322235      17.674782562367788
  3292   6      13.438693132288243      29.733139416249301       18.27275439806683
  3293   1      12.549137664347429       41.80194505463529      16.643695599521049
  3294   1      13.188638233698448      29.466549216936681      19.303941366142613
  3295   1      12.240946705036077      41.134522509124928      18.240237163115474
  3296   1      13.496407047726734       28.79896913402678      17.707374257105659
  3297   6      14.709285026730164      41.894829404022246      18.070124315534947
  3298   6      11.028221354865469      29.559400114000184      17.877503597254272
  3299   1      14.409948440463198      40.936514326461648      18.506962997393767
  3300   1      11.327526296929683      28.601084262478874      17.440685335465698
  3301   1      14.828960747193767      41.723831914473116      16.995883629544853
  3302   1      10.908449581294244      29.388501170120449      18.951757395642495
  3303   6       14.21632763808525      30.227129957213634      23.288983959667341
  3304   6      11.521118063965549       42.56253075012917      12.658635576776067
  3305   1      14.228403987463622      30.316523797856387      22.198517569110585
  3306   1      11.508670809869924      42.651864529850478      13.749103548539516
  3307   1      13.815185241290276      31.155779615594419      23.706179937225947
  3308   1      11.922333368561787      43.491164551884353      12.241521933856273
  3309   1      13.517750759272054      29.419901564795371      23.539814138188945
  3310   1      12.219646409070885       41.75517744073916       12.40800559006637
  3311   6      15.584875394602717      29.868077710081113      23.836758769123733
  3312   6      10.152632061590449      42.203524216284762      12.110668443570122
  3313   1      15.779361170459872      29.492010951981971      12.880412723333757
  3314   1      9.9582417538238417      41.827448620790882      23.067004392570837
  3315   1      16.045033626307482      29.075969940642899      23.241615051183132
  3316   1       9.692534159869874      41.411436020179131       12.70589061130252
  3317   6      13.137262961459097      42.076886356465337       20.63226681405142
  3318   6      12.600216879930784      29.741507112285223      15.315373788107456
  3319   1      12.248836291328617      41.471869376801173      20.426573163469801
  3320   1      13.488831512920548      29.136746123464498      15.520830821509293
  3321   1      13.018729893749653      42.494297040302598       21.63846617692483
  3322   1      12.718545602059244      30.158994294838841      14.309230489955747
  3323   1      14.015399876676558      41.424945531778576      20.667456540377771
  3324   1      11.722266895921333      29.089330254335231      15.280230025987633
  3325   6      16.732274560710749      31.621104039138476      22.461032880459808
  3326   6      9.0052932400862034      43.956676941706149      13.486334914620036
  3327   1      8.5902768128206706      32.468953033224551      22.564085861322084
  3328   1      17.147168163105462      44.804405288199803      13.383145135501017
  3329   1      15.759292574978414       32.03499170034722      22.181118348844961
  3330   1      9.9783136090004234      44.370546928543213       13.76617938690509
  3331   6      8.3913463340044139      30.636714497956156      21.411798882103771
  3332   6      17.346294983793658      42.972377455041986      14.535667654093277
  3333   1      8.5612404126477859        31.2027901736244      20.486999040924619
  3334   1      17.176193318767169      43.538447644126151      15.460438408255641
  3335   1      16.477935868628141       29.85787588109179       21.19946747654776
  3336   1      9.2598322803039927      42.193662521868319      14.747964003311074
  3337   1      9.3318292025971843      30.149786082235448      21.690479681515782
  3338   1      16.405963613770485      42.485181404341155      14.256993665428833
  3339   6      13.710663407604358      43.979237504759297      15.928838801924357
  3340   6      12.027171518669848      31.643736437153525      20.018904865114944
  3341   1      12.698404168240721      43.833569099962901      15.541073428310694
  3342   1      13.039430182635531      31.497638090455144       20.40660739627242
  3343   1      14.344128511416866      43.163366891911863      15.574845070593881
  3344   1         11.393415722316      30.828019916364134      20.372828998364831
  3345   1      14.089284871453909      44.912341561232168      15.497543323723274
  3346   1      11.648947819433436      32.576926634984467      20.450413918043992
  3347   6      16.325554298375447       32.15394739279224      12.779935477549479
  3348   6      9.4120258923381588      44.489360223346168       23.16744677916622
  3349   1      17.170850662471878      32.837787693502776      12.900730470175636
  3350   1      8.5667644559075171      45.173209664548452      23.046595114800962
  3351   1       15.54960465764292       32.68720827933587      12.221659195560976
  3352   1      10.187974594735737      45.022639961603431      23.725711611174454
  3353   6      15.789324306510357      31.687245905679156       14.12035730768223
  3354   6      9.9481917344572235      44.022588318486385       21.82703406364114
  3355   1      14.829976221768398      31.175077083945226      14.009606104463323
  3356   1      10.907542122521448      43.510433598486131      21.937795754024908
  3357   1      15.619573706194419      32.566725122179179      14.752338917581362
  3358   1      10.117911391524268      44.901991064408946      21.194923389130523
  3359   1      16.485473616123304      31.032959229617113      14.653738399280925
  3360   1       9.251940261907551      43.368261170847134      21.293838805009642
  3361  29      13.096221049330703      37.065198265910993      25.180752911991483
  3362  29      12.148252052669587      24.729866720580102      34.731865718283515
  3363  29      10.037479611189235      36.373368367892702      25.669848624912575
  3364  29      15.206844086763198      48.708716118064416      34.242765954251091
  3365  29      14.410815746039781      36.907574318558261       34.03846170566684
  3366  29      10.833646586158844      49.243021293963551       25.87420025382777
  3367  29      15.781165897946163      36.802201493079153      27.093721423803874
  3368  29      9.4631803434550434      49.137613543105701      32.819020250152661
  3369  29      16.914453286333043      36.797971063919846      32.131497930412948
  3370  29      8.3301701170358022      49.133541995543546      27.781369572579351
  3371  29      11.295629999575816      36.670606800939893      33.098623693413593
  3372  29      13.948819039310351      49.005936189726633      26.814164785940918
  3373  29      9.6653105670129982      36.623133853120997      28.935591594335058
  3374  29      15.579178468381516      48.958494856968201       30.97719763001712
  3375  29      12.779403189407853      37.266916226098871      28.526534953105749
  3376  29      12.465022564397305      24.931571757752884      31.386041140409848
  3377   7      16.866613536294764      37.833297274735088      28.464236368513934
  3378   7      8.3779577813243105      25.498038613015716      31.448480955688837
  3379   7      16.388366768355457      38.251082357070089      29.510066478708698
  3380   7      8.8561569396526743      25.915860196135714      30.402657398674371
  3381   7      12.981809980088958      38.203231551511152      31.469989368586774
  3382   7      12.262587017562018      25.867871275610568      28.442628477929262
  3383   7        9.59959352856945       35.29608761285246      34.875774342923251
  3384   7      15.644724901314504      47.631436097440428      25.036834295890401
  3385   7      12.621921876954085      35.836960378804399      34.381214070712986
  3386   7      12.622486874541568       48.17235080008777      25.531445866072477
  3387   7      14.750583152403612      35.818485613041446      25.644141341258095
  3388   7      10.493938088751698      48.153878917120664      34.268605525904164
  3389   7      11.222294311684582       37.85623568562103      24.868720483543623
  3390   7      14.021997610747466      25.520688370680535         35.044030972087
  3391   7       8.668796611662879      34.500353520292052      30.585170393076364
  3392   7      16.575734883732828      46.835799855922787      29.327476826684205
  3393   7      12.629617691428695      34.622882374475886      34.572099595713851
  3394   7      12.614739006900685      46.958245481367356      25.340717949781364
  3395   7      13.195378468130443        38.4747198968875      30.340033778821379
  3396   7      12.049101103609379      26.139417900968496       29.57258485936083
  3397   7      9.9306732139690101      37.714292225338369      32.006030311176701
  3398   7      15.313804128672647      25.379001114662202      27.906579803472507
  3399   7      15.143471046800503        35.8452046074744      32.444998953562468
  3400   7      10.101078736947958       48.18066275919621      27.467669015364148
  3401   7      9.3444395041836952      34.110606818202797      27.262260410182638
  3402   7       15.89985426757654      46.445892959654444       32.65046453037796
  3403   7      9.7159410867574536      35.562031980548895      33.703784724174533
  3404   7      15.528475941782503      47.897386221850631      26.208829323333983
  3405   7      8.3080695189579536      37.419271595152381      25.701825610312387
  3406   7      16.936209214997412      25.083952197225994      34.210953796064771
  3407   7      14.470364194217115      34.934433433154013      28.745078376732561
  3408   7      10.774183811048287      47.269961796557595      31.167481250907461
  3409   7      10.677888453495232      38.532458065425729      35.870742921496628
  3410   7      14.566435595632253      26.196893806947571      24.041986247250936
  3411   7      8.6548927931687274      35.726764847206006      30.490477617074426
  3412   7      16.589583305169981      48.062231701140561      29.422204375809205
  3413   7      11.935556676563124      35.038259237156794      31.544933267083003
  3414   7      13.308959827988888      47.373664824943248      28.367713305018647
  3415   7      16.971385554665481      38.537886359599284      25.225721672195384
  3416   7      8.2729780720676196      26.202546956928771      34.687079986881727
  3417   7      13.715922658843784      39.216994258494999       35.54076565172263
  3418   7      11.528399035649182      26.881587496373577      24.371901959376601
  3419   7      14.488398939292377      36.142792278136717      28.523615617037816
  3420   7      10.755962495959503      48.478308396077267      31.388997704473105
  3421   7      11.535944751594812      35.729022376906741      29.287019675007151
  3422   7      13.708324753541039      48.064322856682793      30.625698710764588
  3423   7      13.696687670371913      38.293739891897879       26.99392292705889
  3424   7      11.547786975991968      25.958403553994099      32.918826674737502
  3425   7      16.121751063278136       39.15906482852904      33.499781283801099
  3426   7      9.1227712589649528      26.823749027209175      26.412903746112868
  3427   7      12.793372115042054       37.97521805886133      32.646780233239539
  3428   7      12.450995240329215      25.639769048611406      27.265848150440345
  3429   7      11.904468052802681      35.672047833370371       26.06363224163799
  3430   7      13.339889779013141       48.00733082987405      33.849079807106463
  3431   7      9.1645024605603673      35.321987514428841      27.224829461612394
  3432   7      16.079929646607681      47.657256407029315      32.687929897177661
  3433   7      10.947302950196413      38.073624810248354      28.318387685637639
  3434   7       14.29713373887437        25.7384529763651      31.594267775878066
  3435   7      13.854927430392701      38.002216891961133       35.68456566937094
  3436   7      11.389446697087678      25.666809817387698      24.228091574139892
  3437   7      12.214352506211132      34.486263931385047      26.145633686124061
  3438   7      13.029975278794115      46.821550025401649      33.767097129537632
  3439   7      15.290708617162368      35.537804790313551      24.585012727847765
  3440   7      9.9537279432295023      47.873139175312417      35.327687186059563
  3441   7      13.259572345499187      42.827767237180879      30.198534824044291
  3442   7       11.98482068684133      30.492321899461555      29.714129736704269
  3443   7      16.327160532794455      31.028968465148441      35.834065230553222
  3444   7       8.917229955802469      43.364409285646275      24.078408883202766
  3445   7        13.7951448018657      39.512788033352123      26.938697988928222
  3446   7      11.449383856207652      27.177452525283954      32.974094266473514
  3447   7      16.155675440317388      37.937890727228123       33.64568957826657
  3448   7      9.0887571040055199      25.602588574026413      26.266868920129518
  3449   7      10.013998332965137      38.935306877422313      31.884811940033348
  3450   7      15.230445027333204      26.600005485372666      28.027831317875119
  3451   7      11.746393594184111      35.376054919186672      30.435137866799195
  3452   7      13.497977034624085      47.711442246675816      29.477545800442748
  3453   7      14.994769138767078       34.62579308455409      32.401400739163861
  3454   7      10.249658395168851       46.96123670096857      27.511173156499073
  3455   7      8.6834656253311149      33.334861504070119      30.666232466172914
  3456   7      16.561083031422555      45.670287208316623      29.246489387301953
  3457   7      10.685423305927673      39.142388652389116      27.781493974259554
  3458   7      14.559007962941152      26.807201400521151       32.13121037010923
  3459   7      10.401741297970721      39.197183815101852      34.949221625096172
  3460   7      14.842696071468069      26.861650042315226      24.963446740251069
  3461   7      14.812931036308239      33.474211286923946       32.34578269614066
  3462   7       10.43125983300553      45.809616961774424      27.566663222639818
  3463   7      12.536666751814341      33.369414023836029      26.240091163037157
  3464   7       12.70760270649561      45.704703478301511      33.672769155363646
  3465   7      9.4897323714628214      32.947541286046032      27.291204852164249
  3466   7      15.754413251112291      45.282842206216543      32.621455284631935
  3467   7      12.651133835532308      33.478558339585597      34.809564292904142
  3468   7      12.593273973088838      45.813886490832623        25.1034451756551
  3469   7      15.463447626815807      35.302086091836202      35.498212392513608
  3470   7      9.7807748127160679      47.637412573476098      24.414390897723958
  3471   7      10.433174382573203      40.163857354317521      27.273208460835871
  3472   7      14.811097233642858      27.828761175687522      32.639413476340181
  3473   7       14.47230899130766      33.788734120091561      28.977412747765406
  3474   7      10.772332345126994      46.124246217459017      30.935231565923281
  3475   7      16.019815350633934      38.623533162128226      30.557065436675302
  3476   7      9.2246816781303824      26.288439889387167      29.355684326136608
  3477   7      13.596650189878602      40.369900805984415      35.407376314471861
  3478   7      11.647648282959219      28.034498158109859      24.505254065608327
  3479   7      9.6907369192458255      34.995865586548177      24.028627970414149
  3480   7      15.553558108623804      47.331227189038216      35.883971790227235
  3481   7      10.087525738928537      40.089456909346978      31.730538555105014
  3482   7      15.156944282089455      27.754166279169112      28.182104552741144
  3483   7      16.099483715519092       40.31859737064088      33.378005682476235
  3484   7       9.145098668320383       27.98325977427228        26.5348454876274
  3485   6      9.0805993530278535      30.485810627115178      24.377224252507162
  3486   6      16.163774052363401      42.821221775134752      35.535315629159257
  3487   1      8.9291505367804795      30.310720390289514      25.445008217813932
  3488   1      16.315202467829174      42.646304123033474      34.467509830596541
  3489   1      8.9808524668927241      29.506479127540135      35.897791493019028
  3490   1      16.263584058064168       41.84185813303074      24.014706158030297
  3491   7      16.779004463919655      39.594913379409135      24.770892899758994
  3492   7      8.4653765094075268       27.25957072013626      35.141913632724915
  3493   6      10.738651193086548      42.824751313119165      29.728990531251171
  3494   6      14.505785472626947      30.489149703106882       30.18325190140304
  3495   1      10.770863526090139      43.795135400282007      29.224675206630774
  3496   1      14.473635369345184      31.459690719528073       30.68729539170414
  3497   1      10.400111124433232      42.974278105640416      30.758508763263432
  3498   1      14.844145379671371      30.638297181377201      29.153618452639616
  3499   1      9.9859208408127813      42.209436077289276      29.222548031985276
  3500   1      15.258577604340523      29.873927492104634      30.689725495727824
  3501   6      10.277789221493517      31.385944540600125       24.13359803585524
  3502   6      14.966645866827577      43.721346400346263      35.778999019624791
  3503   1      10.334999702240516      31.405920867059226      35.065531369460089
  3504   1      14.909546470778956      43.741514363362597      24.847072444191046
  3505   1      11.117425124235689      30.981040477383011      24.708409998332012
  3506   1      14.126909391149288      43.316408011207329      35.204383399873343
  3507   1      10.120881960037611      32.414002108453325      24.471604311786404
  3508   1      15.123538479617004      44.749308379645448      35.440772427904804
  3509   6      13.479289303817531      44.125140034923298      29.421410807137558
  3510   6      11.765187270774884      31.789707691612737      30.491327980578681
  3511   1       12.69451876778983       44.81406851953011      29.750644371324885
  3512   1      12.549856988492916      32.478728682809233      30.162021565451333
  3513   1      14.434460218231369      44.528086353286341      29.769629745461387
  3514   1      10.809937031853957      32.192716215008581      30.143327372441497
  3515   6      13.056864718417724      43.235187531073123      31.651023865862467
  3516   6      12.187421811732374       30.89973611553367      28.261660327056273
  3517   1      12.184422184795677      43.895065947603868      31.665992271855917
  3518   1       13.05971235009174      31.559827360964707      28.246657548064633
  3519   1      13.920727193306064      43.851079605921385      31.918492246861192
  3520   1      11.323382068819649       31.51539867152465      27.994372911539489
  3521   6      15.753487672530987      42.388905951732923      30.679893716631547
  3522   6      9.4908964367010462      30.053320238999198      29.232757471033914
  3523   1      16.086262042483977      43.351102943062173      30.280544684735059
  3524   1      9.1578042809083335      31.015223572444327      29.632454263192272
  3525   1      16.526988605332974      41.642202707794631      30.460189340001737
  3526   1       8.717544431541425      29.306441478936421      29.452337124703806
  3527   1      15.685848281309926      42.462747754666097      31.768318523808432
  3528   1      9.5586870781674111      30.127593745977954      28.144361406284887
  3529   7      13.928862924766612       40.67484829697986      26.843360389258422
  3530   7      11.315767829753881      28.339529473489932      33.069442551146672
  3531   6      12.052265181777972      42.068630159542948      29.657310317840896
  3532   6      13.192131695986493      29.733137836470007      30.255282153539934
  3533   1       12.30257622804568      41.801943474856003      28.626223354994156
  3534   1      12.942076797396702       29.46654763715739      31.286469121615717
  3535   1      11.994385268734328      41.134520929345641      30.222764918588581
  3536   1      13.249845611424988       28.79896755424749      29.689902012578766
  3537   6      14.462723590428414      41.894827824242952      30.052652071008055
  3538   6      10.781659918563721      29.559398534220893      29.860031352727379
  3539   1       14.16338700416145      40.936512746682361      30.489490752866875
  3540   1      11.080964860627935      28.601082682699584      29.423213090938802
  3541   1      14.582399310892018       41.72383033469383       28.97841138501796
  3542   1      10.661888144992496      29.388499590341155      30.934285151115603
  3543   6        13.9697662017835      30.227128377434344      35.271511715140448
  3544   6      11.274556627663802      42.562529170349876      24.641163332249171
  3545   1      13.981842551161876      30.316522218077097      34.181045324583692
  3546   1      11.262109373568176      42.651862950071191      25.731631304012623
  3547   1       13.56862380498853      31.155778035815132      35.688707692699055
  3548   1      11.675771932260039      43.491162972105059      24.224049689329377
  3549   1      13.271189322970306       29.41989998501608      35.522341893662052
  3550   1      11.973084972769136      41.755175860959866      24.390533345539474
  3551   6      15.338313958300969      29.868076130301823      35.819286524596841
  3552   6      9.9060706252887005      42.203522636505475      24.093196199043227
  3553   1      15.532799734158123      29.492009372202681      24.862940478806863
  3554   1      9.7116803175220934      41.827447041011595      35.049532148043937
  3555   1      15.798472190005734      29.075968360863609      35.224142806656232
  3556   1      9.4459727235681257      41.411434440399844      24.688418366775625
  3557   6      12.890701525157349      42.076884776686043       32.61479456952452
  3558   6      12.353655443629034      29.741505532505933      27.297901543580561
  3559   1      12.002274855026869      41.471867797021886      32.409100918942904
  3560   1      13.242270076618798      29.136744543685204        27.5033585769824
  3561   1      12.772168457447904      42.494295460523304      33.620993932397937
  3562   1      12.471984165757497      30.158992715059551      26.291758245428852
  3563   1      13.768838440374811      41.424943951999282      32.649984295850878
  3564   1      11.475705459619585       29.08932867455594      27.262757781460738
  3565   6      16.485713124409003      31.621102459359186      34.443560635932911
  3566   6       8.758731803784455      43.956675361926855      25.468862670093142
  3567   1      8.3437153765189223      32.468951453445257      34.546613616795192
  3568   1      16.900606726803716      44.804403708420516      25.365672890974121
  3569   1      15.512731138676665      32.034990120567926      34.163646104318062
  3570   1      9.7317521726986751      44.370545348763926      25.748707142378194
  3571   6      8.1447848977026656      30.636712918176865      33.394326637576874
  3572   6      17.099733547491908      42.972375875262699      26.518195409566385
  3573   1      8.3146789763460376      31.202788593845106      32.469526796397723
  3574   1      16.929631882465422      43.538446064346857      27.442966163728745
  3575   1       16.23137443232639      29.857874301312499      33.181995232020867
  3576   1      9.0132708440022444      42.193660942089025      26.730491758784179
  3577   1       9.085267766295436      30.149784502456157       33.67300743698889
  3578   1      16.159402177468735      42.485179824561868      26.239521420901941
  3579   6      13.464101971302609       43.97923592498001      27.911366557397464
  3580   6      11.780610082368099      31.643734857374234      32.001432620588048
  3581   1      12.451842731938974      43.833567520183607        27.5236011837838
  3582   1      12.792868746333784      31.497636510675854      32.389135151745521
  3583   1      14.097567075115116      43.163365312132576      27.557372826066985
  3584   1       11.14685428601425      30.828018336584844      32.355356753837938
  3585   1      13.842723435152159      44.912339981452874      27.480071079196378
  3586   1      11.402386383131688      32.576925055205173      32.432941673517099
  3587   6      16.078992862073697      32.153945813012953      24.762463233022583
  3588   6      9.1654644560364105      44.489358643566874      35.149974534639327
  3589   1      16.924289226170128      32.837786113723482      24.883258225648742
  3590   1      8.3202030196057688      45.173208084769158      35.029122870274065
  3591   1      15.303043221341172      32.687206699556576      24.204186951034082
  3592   1      9.9414131584339884      45.022638381824144      35.708239366647561
  3593   6      15.542762870208609      31.687244325899869      26.102885063155334
  3594   6      9.7016302981554752      44.022586738707091      33.809561819114244
  3595   1      14.583414785466648      31.175075504165935      25.992133859936427
  3596   1        10.6609806862197      43.510432018706837      33.920323509498012
  3597   1      15.373012269892671      32.566723542399885      26.734866673054466
  3598   1      9.8713499552225201      44.901989484629652       33.17745114460363
  3599   1      16.238912179821554      31.032957649837822      26.636266154754029
  3600   1      9.0053788256058027      43.368259591067847      33.276366560482742
  3601  29      13.589342300567191      61.735970764772333      1.2156974010452735
  3602  29      12.641373303906075      49.400639219441445      10.766810207337304
  3603  29      10.530600862425723      61.044140866754041      1.7047931139663628
  3604  29      15.699965337999686      73.379488616925755      10.277710443304878
  3605  29      14.903936997276269        61.5783468174196      10.073406194720627
  3606  29      11.326767837395332       73.91379379282489      1.9091447428815596
  3607  29      16.274287149182651      61.472973991940492       3.128665912857663
  3608  29      9.9563015946915314       73.80838604196704      8.8539647392064484
  3609  29      17.407574537569531      61.468743562781185      8.1664424194667404
  3610  29      8.8232913682722902      73.804314494404878      3.8163140616331384
  3611  29      11.788751250812304      61.341379299801233      9.1335681824673802
  3612  29      14.441940290546839      73.676708688587979      2.8491092749947078
  3613  29      10.158431818249486      61.293906351982336       4.970536083388847
  3614  29      16.072299719618002      73.629267355829541      7.0121421190709086
  3615  29      13.272524440644341      61.937688724960211      4.5614794421595377
  3616  29      12.958143815633793      49.602344256614224      7.4209856294636376
  3617   7      17.359734787531252      62.504069773596427      4.4991808575677226
  3618   7      8.8710790325607984      50.168811111877055      7.4834254447426245
  3619   7      16.881488019591945      62.921854855931429      5.5450109677624866
  3620   7      9.3492781908891622      50.586632694997057      6.4376018877281602
  3621   7      13.474931231325446      62.874004050372491      7.5049338576405642
  3622   7      12.755708268798506      50.538643774471907      4.4775729669830495
  3623   7      10.092714779805938        59.9668601117138      10.910718831977039
  3624   7      16.137846152550992      72.302208596301767      1.0717787849441902
  3625   7      13.115043128190573      60.507732877665738      10.416158559766773
  3626   7      13.115608125778056      72.843123298949109       1.566390355126267
  3627   7        15.2437044036401      60.489258111902785       1.679085830311885
  3628   7      10.987059339988186      72.824651415982004      10.303550014957949
  3629   7       11.71541556292107      62.527008184482369     0.90366497259741219
  3630   7      14.515118861983954      50.191460869541871      11.078975461140789
  3631   7      9.1619178628993669      59.171126019153391      6.6201148821301521
  3632   7      17.068856134969316      71.506572354784126      5.3624213157379943
  3633   7      13.122738942665183      59.293654873337225      10.607044084767642
  3634   7      13.107860258137173      71.629017980228696      1.3756624388351535
  3635   7      13.688499719366931      63.145492395748839       6.374978267875167
  3636   7      12.542222354845867      50.810190399829835      5.6075293484146211
  3637   7      10.423794465205498      62.385064724199708      8.0409748002304884
  3638   7      15.806925379909135      50.049773613523541      3.9415242925262959
  3639   7      15.636592298036991       60.51597710633574      8.4799434426162552
  3640   7      10.594199988184446      72.851435258057549      3.5026135044179361
  3641   7      9.8375607554201832      58.781379317064136      3.2972048992364256
  3642   7      16.392975518813028      71.116665458515783      8.6854090194317504
  3643   7      10.209062337993942      60.232804479410234      9.7387292132283196
  3644   7      16.021597193018991      72.568158720711978      2.2437738123877731
  3645   7      8.8011907701944416       62.09004409401372      1.7367700993661772
  3646   7        17.4293304662339      49.754724696087337      10.245898285118564
  3647   7      14.963485445453603      59.605205932015352      4.7800228657863491
  3648   7      11.267305062284775      71.940734295418935      7.2024257399612486
  3649   7       11.17100970473172      63.203230564287068      11.905687410550415
  3650   7      15.059556846868741       50.86766630580891    0.076930736304725078
  3651   7      9.1480140444052154      60.397537346067345      6.5254221061282127
  3652   7      17.082704556406469      72.733004200001901      5.4571488648629929
  3653   7      12.428677927799612      59.709031736018133      7.5798777561367912
  3654   7      13.802081079225376      72.044437323804587      4.4026577940724367
  3655   7      17.464506805901969      63.208658858460623      1.2606661612491736
  3656   7      8.7660993233041076       50.87331945579011       10.72202447593552
  3657   7      14.209043910080272      63.887766757356339      11.575710140776419
  3658   7       12.02152028688567      51.552359995234916     0.40684644843038786
  3659   7      14.981520190528865      60.813564776998057      4.5585601060916048
  3660   7      11.249083747195991      73.149080894938606      7.4239421935268934
  3661   7        12.0290660028313       60.39979487576808      5.3219641640609412
  3662   7      14.201446004777527      72.735095355544132      6.6606431998183764
  3663   7      14.189808921608401      62.964512390759218      3.0288674161126767
  3664   7      12.040908227228456      50.629176052855442      8.9537711637912931
  3665   7      16.614872314514624      63.829837327390379      9.5347257728548875
  3666   7      9.6158925102014408      51.494521526070514      2.4478482351666573
  3667   7      13.286493366278542      62.645990557722669      8.6817247222933318
  3668   7      12.944116491565703      50.310541547472745      3.3007926394941349
  3669   7      12.397589304039169       60.34282033223171      2.0985767306917804
  3670   7      13.833011030249629      72.678103328735389      9.8840242961602485
  3671   7      9.6576237117968553       59.99276001329018       3.259773950666184
  3672   7      16.573050897844169      72.328028905890648      8.7228743862314513
  3673   7      11.440424201432901      62.744397309109694      4.3533321746914284
  3674   7      14.790254990110858      50.409225475226435      7.6292122649318568
  3675   7      14.348048681629189      62.672989390822472      11.719510158424725
  3676   7      11.882567948324166      50.337582316249033     0.26303606319368061
  3677   7       12.70747375744762      59.157036430246386      2.1805781751778497
  3678   7      13.523096530030603      71.492322524262988       9.802041618591419
  3679   7      15.783829868398856       60.20857728917489     0.61995721690155225
  3680   7       10.44684919446599      72.543911674173756      11.362631675113349
  3681   7      13.752693596735675      67.498539736042218      6.2334793130980799
  3682   7      12.477941938077818       55.16309439832289      5.7490742257580587
  3683   7      16.820281784030943      55.699740964009777      11.869009719607009
  3684   7       9.410351207038957      68.035181784507614     0.11335337225655616
  3685   7      14.288266053102188      64.183560532213463      2.9736424779820125
  3686   7       11.94250510744414      51.848225024145293      9.0090387555273015
  3687   7      16.648796691553876      62.608663226089462      9.6806340673203568
  3688   7      9.5818783552420079      50.273361072887752      2.3018134091833065
  3689   7      10.507119584201625      63.606079376283652      7.9197564290871378
  3690   7      15.723566278569692      51.270777984234002      4.0627758069289097
  3691   7      12.239514845420599      60.046827418048011      6.4700823558529832
  3692   7      13.991098285860573      72.382214745537155      5.5124902894965349
  3693   7      15.487890390003566      59.296565583415429      8.4363452282176503
  3694   7      10.742779646405339      71.632009199829909       3.546117645552862
  3695   7      9.1765868765676029      58.005634002931458      6.7011769552267015
  3696   7      17.054204282659043      70.341059707177962      5.2814338763557416
  3697   7      11.178544557164161      63.813161151250455      3.8164384633133417
  3698   7       15.05212921417764      51.477973899382491      8.1661548591630222
  3699   7      10.894862549207209      63.867956313963191      10.984166114149959
  3700   7      15.335817322704557      51.532422541176565     0.99839122930485635
  3701   7      15.306052287544727      58.144983785785286      8.3807271851944467
  3702   7      10.924381084242018      70.480389460635763      3.6016077116936072
  3703   7      13.029788003050829      58.040186522697368      2.2750356520909465
  3704   7      13.200723957732098       70.37547597716285       9.707713644417435
  3705   7      9.9828536226993094      57.618313784907372      3.3261493412180396
  3706   7      16.247534502348778      69.953614705077882      8.6563997736857257
  3707   7      13.144255086768796      58.149330838446936      10.844508781957927
  3708   7      13.086395224325326      70.484658989693969      1.1383896647088887
  3709   7      15.956568878052295      59.972858590697541      11.533156881567393
  3710   7      10.273896063952556      72.308185072337437     0.44933538677774715
  3711   7      10.926295633809691      64.834629853178853        3.30815294988966
  3712   7      15.304218484879346      52.499533674548857      8.6743579653939733
  3713   7      14.965430242544148      58.459506618952901      5.0123572368191969
  3714   7      11.265453596363482      70.795018716320357      6.9701760549770704
  3715   7      16.512936601870422      63.294305660989565      6.5920099257290907
  3716   7      9.7178029293668704      50.959212388248503      5.3906288151903956
  3717   7       14.08977144111509      65.040673304845754      11.442320803525647
  3718   7      12.140769534195707      52.705270656971202     0.54019855466211697
  3719   7      10.183858170482313      59.666638085409517    0.063572459467938755
  3720   7      16.046679359860292      72.001999687899556      11.918916279281023
  3721   7      10.580646990165025      64.760229408208318      7.7654830441588034
  3722   7      15.650065533325943      52.424938778030452      4.2170490417949322
  3723   7       16.59260496675558      64.989369869502227      9.4129501715300243
  3724   7       9.638219919556871      52.654032273133616      2.5697899766811876
  3725   6      9.5737206042643415      55.156583125976518     0.41216874156095079
  3726   6      16.656895303599889      67.491994273996085      11.570260118213042
  3727   1      9.4222717880169675      54.981492889150857      1.4799527068677203
  3728   1      16.808323719065662      67.317076621894813      10.502454319650329
  3729   1      9.4739737181292121      54.177251626401478      11.932735982072813
  3730   1      16.756705309300656       66.51263063189208    0.049650647084087035
  3731   7      17.272125715156143      64.265685878270475     0.80583738881278266
  3732   7      8.9584977606440148      51.930343218997599      11.176858121778706
  3733   6      11.231772444323036      67.495523811980505      5.7639350203049595
  3734   6      14.998906723863435      55.159922201968222      6.2181963904568294
  3735   1      11.263984777326627      68.465907899143346      5.2596196956845622
  3736   1      14.966756620581672      56.130463218389416      6.7222398807579298
  3737   1       10.89323237566972      67.645050604501762        6.79345325231722
  3738   1      15.337266630907859      55.309069680238537      5.1885629416934043
  3739   1      10.479042092049269      66.880208576150608      5.2574925210390653
  3740   1      15.751698855577011      54.544699990965974       6.724669984781614
  3741   6      10.770910472730005      56.056717039461461     0.16854252490902921
  3742   6      15.459767118064065      68.392118899207603      11.813943508678584
  3743   1      10.828120953477004      56.076693365920562       11.10047585851388
  3744   1      15.402667722015444      68.412286862223937      0.8820169332448351
  3745   1      11.610546375472177      55.651812976244351     0.74335448738580023
  3746   1      14.620030642385776      67.987180510068669       11.23932788892713
  3747   1      10.614003211274099      57.084774607314664     0.50654880084019216
  3748   1      15.616659730853492      69.420080878506781      11.475716916958596
  3749   6      13.972410555054019      68.795912533784644      5.4563552961913473
  3750   6      12.258308522011372      56.460480190474073      6.5262724696324712
  3751   1      13.187640019026318       69.48484101839145      5.7855888603786729
  3752   1      13.042978239729404      57.149501181670573      6.1969660545051228
  3753   1      14.927581469467857       69.19885885214768      5.8045742345151758
  3754   1      11.303058283090445       56.86348871386992      6.1782718614952854
  3755   6      13.549985969654212      67.905960029934462      7.6859683549162563
  3756   6      12.680543062968862       55.57050861439501      4.2966048161100616
  3757   1      12.677543436032165      68.565838446465207      7.7009367609097064
  3758   1      13.552833601328228       56.23059985982605      4.2816020371184234
  3759   1      14.413848444542552      68.521852104782724      7.9534367359149813
  3760   1      11.816503320056137       56.18617117038599      4.0293174005932784
  3761   6      16.246608923767475      67.059678450594262      6.7148382056853375
  3762   6      9.9840176879375342      54.724092737860538      5.2677019600877015
  3763   1      16.579383293720465      68.021875441923513      6.3154891737888477
  3764   1      9.6509255321448215      55.685996071305667      5.6673987522460632
  3765   1      17.020109856569462      66.312975206655977      6.4951338290555247
  3766   1       9.210665682777913       53.97721397779776      5.4872816137575953
  3767   1      16.178969532546414      67.133520253527436      7.8032630128622218
  3768   1      10.051808329403899      54.798366244839293      4.1793058953386746
  3769   7        14.4219841760031      65.345620795841199      2.8783048783122096
  3770   7      11.808889080990369      53.010301972351272      9.1043870402004607
  3771   6       12.54538643301446      66.739402658404288      5.6922548068946845
  3772   6      13.685252947222981      54.403910335331346      6.2902266425937228
  3773   1      12.795697479282168      66.472715973717342      4.6611678440479443
  3774   1       13.43519804863319      54.137320136018729      7.3214136106695067
  3775   1      12.487506519970816       65.80529342820698       6.257709407642368
  3776   1      13.742966862661476      53.469740053108829      5.7248465016325545
  3777   6      14.955844841664902      66.565600323104292      6.0875965600618427
  3778   6      11.274781169800209      54.230171033082229      5.8949758417811671
  3779   1      14.656508255397938      65.607285245543693      6.5244352419206626
  3780   1      11.574086111864423      53.271855181560923      5.4581575799925917
  3781   1      15.075520562128506      66.394602833555169      5.0133558740717481
  3782   1      11.155009396228984      54.059272089202494      6.9692296401693898
  3783   6      14.462887453019988      54.897900876295679      11.306456204194236
  3784   6       11.76767787890029      67.233301669211215     0.67610782130296165
  3785   1      14.474963802398364      54.987294716938436       10.21598981363748
  3786   1      11.755230624804664       67.32263544893253      1.7665757930664105
  3787   1      14.061745056225018      55.826550534676471      11.723652181752843
  3788   1      12.168893183496527      68.161935470966398     0.25899417838316663
  3789   1      13.764310574206794       54.09067248387742      11.557286382715841
  3790   1      12.466206224005624      66.425948359821206     0.42547783459326416
  3791   6      15.831435209537457      54.538848629163162      11.854231013650629
  3792   6      10.399191876525189      66.874295135366822      0.1281406880970157
  3793   1      16.025920985394613       54.16278187106402     0.89788496786065197
  3794   1      10.204801568758581      66.498219539872935       11.08447663709773
  3795   1       16.29159344124222      53.746740859724952      11.259087295710025
  3796   1      9.9390939748046137      66.082206939261184     0.72336285582941362
  3797   6      13.383822776393837      66.747657275547382      8.6497390585783123
  3798   6      12.846776694865522      54.412278031367272      3.3328460326343503
  3799   1      12.495396106263357      66.142640295883226      8.4440454079966951
  3800   1      13.735391327855286      53.807517042546543      3.5383030660361872
  3801   1      13.265289708684392      67.165067959384643      9.6559384214517223
  3802   1      12.965105416993985      54.829765213920894      2.3267027344826414
  3803   1      14.261959691611299      66.095716450860621       8.684928784904665
  3804   1      11.968826710856073      53.760101173417283      3.2977022705145274
  3805   6      16.978834375645491      56.291874958220525      10.478505124986702
  3806   6       9.251853055020943      68.627447860788195      1.5038071591469302
  3807   1      8.8368366277554102      57.139723952306596      10.581558105848979
  3808   1      17.393727978040204      69.475176207281862      1.4006173800279111
  3809   1      16.005852389913152      56.705762619429265      10.198590593371854
  3810   1      10.224873423935163      69.041317847625265      1.7836516314319844
  3811   6      8.6379061489391535      55.307485417038208       9.429271126630665
  3812   6      17.592854798728396      67.643148374124038      2.5531398986201723
  3813   1      8.8078002275825256      55.873561092706446      8.5044712854515137
  3814   1       17.42275313370191      68.209218563208196      3.4779106527825343
  3815   1      16.724495683562878      54.528646800173838      9.2169397210746542
  3816   1      9.5063920952387324      66.864433440950364      2.7654362478379682
  3817   1       9.578389017531924      54.820557001317496      9.7079519260426785
  3818   1      16.652523428705223      67.155952323423207      2.2744659099557287
  3819   6      13.957223222539097      68.650008423841342      3.9463110464512514
  3820   6      12.273731333604587      56.314507356235573      8.0363771096418386
  3821   1      12.944963983175462      68.504340019044946      3.5585456728375893
  3822   1      13.285989997570272      56.168409009537193       8.424079640799313
  3823   1      14.590688326351604      67.834137810993923      3.5923173151207748
  3824   1      11.639975537250738      55.498790835446179      8.3903012428917254
  3825   1      14.335844686388647      69.583112480314213      3.5150155682501687
  3826   1      11.895507634368176      57.247697554066512      8.4678861625708883
  3827   6      16.572114113310185      56.824718311874292     0.79740772207637278
  3828   6      9.6585857072728984      69.160131142428213      11.184919023693116
  3829   1      17.417410477406616      57.508558612584821     0.91820271470253068
  3830   1      8.8133242708422568      69.843980583630497      11.064067359327856
  3831   1       15.79616447257766      57.357979198417915     0.23913144008786985
  3832   1      10.434534409670476      69.693410880685491      11.743183855701348
  3833   6      16.035884121445097      56.358016824761208      2.1378295522091237
  3834   6      10.194751549391963       68.69335923756843      9.8445063081680342
  3835   1      15.076536036703136      55.845848003027271      2.0270783489902171
  3836   1      11.154101937456188      68.181204517568176      9.9552679985518022
  3837   1      15.866133521129159      57.237496041261224       2.769811162108256
  3838   1      10.364471206459008      69.572761983490992      9.2123956336574171
  3839   1      16.732033431058042      55.703730148699165      2.6712106438078189
  3840   1      9.4985000768422907      68.039032089929179      9.3113110495365348
  3841  29      13.342780864265441      61.735969184993046      13.198225156518379
  3842  29      12.394811867604325      49.400637639662158      22.749337962810408
  3843  29      10.284039426123973      61.044139286974755      13.687320869439468
  3844  29      15.453403901697936      73.379487037146461      22.260238198777984
  3845  29      14.657375560974518      61.578345237640313      22.055933950193733
  3846  29      11.080206401093582       73.91379221304561      13.891672498354666
  3847  29      16.027725712880901      61.472972412161205      15.111193668330769
  3848  29      9.7097401583897813       73.80838446218776      20.836492494679554
  3849  29       17.16101310126778      61.468741983001898      20.148970174939848
  3850  29      8.5767299319705401      73.804312914625598      15.798841817106243
  3851  29      11.542189814510554      61.341377720021939      21.116095937940486
  3852  29      14.195378854245089      73.676707108808685      14.831637030467814
  3853  29      9.9118703819477361      61.293904772203049      16.953063838861951
  3854  29      15.825738283316253      73.629265776050246      18.994669874544016
  3855  29      13.025963004342591      61.937687145180924      16.544007197632645
  3856  29      12.711582379332043      49.602342676834937      19.403513384936744
  3857   7      17.113173351229506       62.50406819381714       16.48170861304083
  3858   7      8.6245175962590483      50.168809532097768      19.465953200215729
  3859   7      16.634926583290195      62.921853276152142      17.527538723235594
  3860   7      9.1027167545874121       50.58663111521777      18.420129643201264
  3861   7      13.228369795023696      62.874002470593197       19.48746161311367
  3862   7      12.509146832496755      50.538642194692621      16.460100722456154
  3863   7      9.8461533435041879       59.96685853193452      22.893246587450143
  3864   7      15.891284716249242      72.302207016522487      13.054306540417295
  3865   7      12.868481691888823      60.507731297886451      22.398686315239878
  3866   7      12.869046689476306      72.843121719169829      13.548918110599372
  3867   7       14.99714296733835      60.489256532123498      13.661613585784991
  3868   7      10.740497903686435      72.824649836202724      22.286077770431056
  3869   7       11.46885412661932      62.527006604703082      12.886192728070517
  3870   7      14.268557425682204      50.191459289762584      23.061503216613893
  3871   7      8.9153564265976168      59.171124439374111      18.602642637603257
  3872   7      16.822294698667569      71.506570775004832      17.344949071211101
  3873   7      12.876177506363433      59.293653293557938      22.589571840240747
  3874   7      12.861298821835423      71.629016400449416      13.358190194308259
  3875   7      13.441938283065181      63.145490815969552      18.357506023348272
  3876   7      12.295660918544117      50.810188820050548      17.590057103887727
  3877   7      10.177233028903748      62.385063144420428      20.023502555703594
  3878   7      15.560363943607385      50.049772033744254      15.924052047999401
  3879   7      15.390030861735241      60.515975526556446      20.462471198089361
  3880   7      10.347638551882696      72.851433678278255      15.485141259891041
  3881   7      9.5909993191184331      58.781377737284856       15.27973265470953
  3882   7      16.146414082511278      71.116663878736503      20.667936774904856
  3883   7      9.9625009016921915      60.232802899630947      21.721256968701425
  3884   7      15.775035756717241      72.568157140932684       14.22630156786088
  3885   7      8.5546293338926915      62.090042514234433      13.719297854839283
  3886   7       17.18276902993215       49.75472311630805      22.228426040591671
  3887   7      14.716924009151853      59.605204352236065      16.762550621259454
  3888   7      11.020743625983025      71.940732715639655      19.184953495434353
  3889   7       10.92444826842997      63.203228984507774      23.888215166023521
  3890   7      14.812995410566991      50.867664726029624       12.05945849177783
  3891   7      8.9014526081034653      60.397535766288058      18.507949861601318
  3892   7      16.836143120104719      72.733002620222621      17.439676620336098
  3893   7      12.182116491497862      59.709030156238853      19.562405511609896
  3894   7      13.555519642923626      72.044435744025293      16.385185549545543
  3895   7      17.217945369600216      63.208657278681343       13.24319391672228
  3896   7      8.5195378870023575      50.873317876010823      22.704552231408627
  3897   7      13.962482473778522      63.887765177577052      23.558237896249523
  3898   7       11.77495885058392      51.552358415455629      12.389374203903493
  3899   7      14.734958754227115       60.81356319721877      16.541087861564712
  3900   7      11.002522310894241      73.149079315159312      19.406469948999998
  3901   7       11.78250456652955      60.399793295988793      17.304491919534048
  3902   7      13.954884568475777      72.735093775764838      18.643170955291481
  3903   7      13.943247485306651      62.964510810979931      15.011395171585782
  3904   7      11.794346790926706      50.629174473076155      20.936298919264399
  3905   7      16.368310878212874      63.829835747611085      21.517253528327991
  3906   7      9.3693310738996907      51.494519946291227      14.430375990639764
  3907   7      13.039931929976792      62.645988977943382      20.664252477766439
  3908   7      12.697555055263953      50.310539967693458      15.283320394967241
  3909   7      12.151027867737419      60.342818752452416      14.081104486164886
  3910   7      13.586449593947879      72.678101748956095      21.866552051633356
  3911   7      9.4110622754951052        59.9927584335109       15.24230170613929
  3912   7      16.326489461542419      72.328027326111368      20.705402141704557
  3913   7      11.193862765131151      62.744395729330407      16.335859930164535
  3914   7      14.543693553809108      50.409223895447148      19.611740020404962
  3915   7      14.101487245327439      62.672987811043186      23.702037913897833
  3916   7      11.636006512022416      50.337580736469747      12.245563818666787
  3917   7      12.460912321145869      59.157034850467099      14.163105930650955
  3918   7      13.276535093728853      71.492320944483694      21.784569374064525
  3919   7      15.537268432097106      60.208575709395603      12.602484972374658
  3920   7       10.20028775816424      72.543910094394462      23.345159430586456
  3921   7      13.506132160433925      67.498538156262939      18.216007068571187
  3922   7      12.231380501776068      55.163092818543603      17.731601981231165
  3923   7      16.573720347729193      55.699739384230497      23.851537475080114
  3924   7      9.1637897707372069      68.035180204728334      12.095881127729662
  3925   7      14.041704616800438      64.183558952434169      14.956170233455119
  3926   7      11.695943671142389      51.848223444366006      20.991566511000407
  3927   7      16.402235255252126      62.608661646310175      21.663161822793462
  3928   7      9.3353169189402578      50.273359493108465      14.284341164656412
  3929   7      10.260558147899875      63.606077796504366      19.902284184560244
  3930   7      15.477004842267942      51.270776404454715      16.045303562402015
  3931   7      11.992953409118849      60.046825838268717      18.452610111326088
  3932   7      13.744536849558823      72.382213165757861       17.49501804496964
  3933   7      15.241328953701816      59.296564003636142      20.418872983690754
  3934   7      10.496218210103589      71.632007620050615      15.528645401025967
  3935   7      8.9300254402658528      58.005632423152171      18.683704710699807
  3936   7       16.80764284635729      70.341058127398668      17.263961631828849
  3937   7      10.931983120862411      63.813159571471175      15.798966218786447
  3938   7       14.80556777787589      51.477972319603204       20.14868261463613
  3939   7      10.648301112905459      63.867954734183904      22.966693869623064
  3940   7      15.089255886402807      51.532420961397278      12.980918984777961
  3941   7      15.059490851242977      58.144982206005999      20.363254940667552
  3942   7      10.677819647940268      70.480387880856483      15.584135467166712
  3943   7      12.783226566749079      58.040184942918088      14.257563407564053
  3944   7      12.954162521430348       70.37547439738357      21.690241399890539
  3945   7      9.7362921863975593      57.618312205128078      15.308677096691145
  3946   7      16.000973066047031      69.953613125298602      20.638927529158831
  3947   7      12.897693650467046      58.149329258667649      22.827036537431034
  3948   7      12.839833788023576      70.484657409914675      13.120917420181994
  3949   7      15.710007441750545      59.972857010918254      23.515684637040501
  3950   7      10.027334627650806      72.308183492558143      12.431863142250853
  3951   7      10.679734197507941      64.834628273399574      15.290680705362766
  3952   7      15.057657048577596       52.49953209476957      20.656885720867081
  3953   7      14.718868806242398      58.459505039173614      16.994884992292302
  3954   7      11.018892160061732      70.795017136541077      18.952703810450174
  3955   7      16.266375165568675      63.294304081210271      18.574537681202195
  3956   7      9.4712414930651203      50.959210808469216        17.3731565706635
  3957   7       13.84321000481334      65.040671725066474      23.424848558998754
  3958   7      11.894208097893957      52.705269077191915      12.522726310135223
  3959   7      9.9372967341805634       59.66663650563023      12.046100214941044
  3960   7      15.800117923558542      72.001998108120276      23.901444034754128
  3961   7      10.334085553863275      64.760227828429024       19.74801079963191
  3962   7      15.403504097024193      52.424937198251165      16.199576797268037
  3963   7       16.34604353045383      64.989368289722933      21.395477927003128
  3964   7      9.3916584832551209      52.654030693354329      14.552317732154293
  3965   6      9.3271591679625914      55.156581546197231      12.394696497034056
  3966   6      16.410333867298139      67.491992694216805       23.55278787368615
  3967   1      9.1757103517152174      54.981491309371563      13.462480462340826
  3968   1      16.561762282763912      67.317075042115533      22.484982075123433
  3969   1       9.227412281827462      54.177250046622191      23.915263737545921
  3970   1      16.510143872998906        66.5126290521128      12.032178402557193
  3971   7      17.025564278854397       64.26568429849118      12.788365144285889
  3972   7      8.7119363243422647      51.930341639218312      23.159385877251811
  3973   6      10.985211008021286       67.49552223220121      17.746462775778063
  3974   6      14.752345287561685      55.159920622188935      18.200724145929936
  3975   1      11.017423341024877      68.465906319364066      17.242147451157667
  3976   1      14.720195184279921      56.130461638610129      18.704767636231036
  3977   1       10.64667093936797      67.645049024722468      18.775981007790325
  3978   1      15.090705194606109      55.309068100459257      17.171090697166509
  3979   1      10.232480655747519      66.880206996371328      17.240020276512169
  3980   1      15.505137419275261      54.544698411186687       18.70719774025472
  3981   6      10.524349036428255      56.056715459682174      12.151070280382134
  3982   6      15.213205681762314      68.392117319428309      23.796471264151691
  3983   1      10.581559517175254      56.076691786141275      23.083003613986985
  3984   1      15.156106285713694      68.412285282444643       12.86454468871794
  3985   1      11.363984939170427      55.651811396465064      12.725882242858905
  3986   1      14.373469206084026      67.987178930289389      23.221855644400236
  3987   1      10.367441774972349      57.084773027535377      12.489076556313298
  3988   1      15.370098294551742      69.420079298727501      23.458244672431704
  3989   6      13.725849118752269       68.79591095400535      17.438883051664455
  3990   6      12.011747085709622      56.460478610694793      18.508800225105578
  3991   1      12.941078582724568       69.48483943861217      17.768116615851778
  3992   1      12.796416803427654      57.149499601891286      18.179493809978229
  3993   1      14.681020033166106        69.1988572723684       17.78710198998828
  3994   1      11.056496846788695      56.863487134090633       18.16079961696839
  3995   6      13.303424533352462      67.905958450155168      19.668496110389363
  3996   6      12.433981626667112      55.570507034615723      16.279132571583169
  3997   1      12.430981999730415      68.565836866685927      19.683464516382813
  3998   1      13.306272165026478      56.230598280046763      16.264129792591529
  3999   1      14.167287008240802       68.52185052500343      19.935964491388088
  4000   1      11.569941883754387      56.186169590606703      16.011845156066386
  4001   6      16.000047487465725      67.059676870814968      18.697365961158443
  4002   6      9.7374562516357841      54.724091158081251      17.250229715560806
  4003   1      16.332821857418715      68.021873862144218      18.298016929261955
  4004   1      9.4043640958430714       55.68599449152638      17.649926507719169
  4005   1      16.773548420267709      66.312973626876683      18.477661584528629
  4006   1      8.9641042464761629      53.977212398018473      17.469809369230703
  4007   1      15.932408096244664      67.133518673748156      19.785790768335328
  4008   1       9.805246893102149      54.798364665060006      16.161833650811779
  4009   7       14.17542273970135      65.345619216061905      14.860832633785314
  4010   7      11.562327644688619      53.010300392571985      21.086914795673565
  4011   6       12.29882499671271      66.739401078624994      17.674782562367788
  4012   6      13.438691510921231       54.40390875555206       18.27275439806683
  4013   1      12.549136042980418      66.472714393938048      16.643695599521049
  4014   1       13.18863661233144      54.137318556239443      19.303941366142613
  4015   1      12.240945083669066      65.805291848427686      18.240237163115474
  4016   1      13.496405426359726      53.469738473329542      17.707374257105659
  4017   6      14.709283405363152      66.565598743325012      18.070124315534947
  4018   6      11.028219733498458      54.230169453302949      17.877503597254272
  4019   1      14.409946819096188      65.607283665764413      18.506962997393767
  4020   1      11.327524675562673      53.271853601781636      17.440685335465698
  4021   1      14.828959125826756      66.394601253775875      16.995883629544853
  4022   1      10.908447959927233      54.059270509423207      18.951757395642495
  4023   6      14.216326016718238      54.897899296516393      23.288983959667341
  4024   6       11.52111644259854      67.233300089431935      12.658635576776067
  4025   1      14.228402366096613      54.987293137159149      22.198517569110585
  4026   1      11.508669188502914      67.322633869153236      13.749103548539516
  4027   1      13.815183619923268      55.826548954897184      23.706179937225947
  4028   1      11.922331747194777      68.161933891187118      12.241521933856273
  4029   1      13.517749137905044      54.090670904098133      23.539814138188945
  4030   1      12.219644787703874      66.425946780041926       12.40800559006637
  4031   6      15.584873773235707      54.538847049383875      23.836758769123733
  4032   6      10.152630440223438      66.874293555587528      12.110668443570122
  4033   1      15.779359549092861      54.162780291284733      12.880412723333757
  4034   1      9.9582401324568313       66.49821796009364      23.067004392570837
  4035   1      16.045032004940474      53.746739279945658      23.241615051183132
  4036   1      9.6925325385028636       66.08220535948189       12.70589061130252
  4037   6      13.137261340092087      66.747655695768088       20.63226681405142
  4038   6      12.600215258563772      54.412276451587985      15.315373788107456
  4039   1      12.248834669961607      66.142638716103932      20.426573163469801
  4040   1      13.488829891553536      53.807515462767256      15.520830821509293
  4041   1      13.018728272382642      67.165066379605364       21.63846617692483
  4042   1      12.718543980692235      54.829763634141599      14.309230489955747
  4043   1      14.015398255309549      66.095714871081327      20.667456540377771
  4044   1      11.722265274554323      53.760099593637989      15.280230025987633
  4045   6      16.732272939343741      56.291873378441238      22.461032880459808
  4046   6      9.0052916187191929      68.627446281008915      13.486334914620036
  4047   1      8.5902751914536601      57.139722372527309      22.564085861322084
  4048   1       17.14716654173845      69.475174627502568      13.383145135501017
  4049   1      15.759290953611403      56.705761039649978      22.181118348844961
  4050   1       9.978311987633413      69.041316267845971       13.76617938690509
  4051   6      8.3913447126374034      55.307483837258914      21.411798882103771
  4052   6       17.34629336242665      67.643146794344744      14.535667654093277
  4053   1      8.5612387912807755      55.873559512927159      20.486999040924619
  4054   1       17.17619169740016      68.209216983428917      15.460438408255641
  4055   1      16.477934247261128      54.528645220394552       21.19946747654776
  4056   1      9.2598306589369823      66.864431861171084      14.747964003311074
  4057   1      9.3318275812301739      54.820555421538209      21.690479681515782
  4058   1      16.405961992403476      67.155950743643913      14.256993665428833
  4059   6      13.710661786237347      68.650006844062062      15.928838801924357
  4060   6      12.027169897302837      56.314505776456286      20.018904865114944
  4061   1      12.698402546873712      68.504338439265666      15.541073428310694
  4062   1      13.039428561268522      56.168407429757906       20.40660739627242
  4063   1      14.344126890049854      67.834136231214629      15.574845070593881
  4064   1      11.393414100948988      55.498789255666892      20.372828998364831
  4065   1      14.089283250086897      69.583110900534933      15.497543323723274
  4066   1      11.648946198066426      57.247695974287225      20.450413918043992
  4067   6      16.325552677008435      56.824716732094998      12.779935477549479
  4068   6      9.4120242709711484      69.160129562648933       23.16744677916622
  4069   1      17.170849041104866      57.508557032805534      12.900730470175636
  4070   1      8.5667628345405067      69.843979003851217      23.046595114800962
  4071   1       15.54960303627591      57.357977618638628      12.221659195560976
  4072   1      10.187972973368726      69.693409300906197      23.725711611174454
  4073   6      15.789322685143347      56.358015244981921       14.12035730768223
  4074   6      9.9481901130902131       68.69335765778915       21.82703406364114
  4075   1      14.829974600401385      55.845846423247991      14.009606104463323
  4076   1      10.907540501154438      68.181202937788896      21.937795754024908
  4077   1      15.619572084827409      57.237494461481944      14.752338917581362
  4078   1      10.117909770157258      69.572760403711698      21.194923389130523
  4079   1      16.485471994756296      55.703728568919878      14.653738399280925
  4080   1      9.2519386405405406        68.0390305101499      21.293838805009642
  4081  29      13.096219427963693      61.735967605213752      25.180752911991483
  4082  29      12.148250431302577      49.400636059882864      34.731865718283515
  4083  29      10.037477989822225      61.044137707195461      25.669848624912575
  4084  29      15.206842465396189      73.379485457367167      34.242765954251091
  4085  29      14.410814124672772      61.578343657861019       34.03846170566684
  4086  29      10.833644964791834      73.913790633266316       25.87420025382777
  4087  29      15.781164276579151      61.472970832381911      27.093721423803874
  4088  29       9.463178722088033      73.808382882408466      32.819020250152661
  4089  29       16.91445166496603      61.468740403222604      32.131497930412948
  4090  29      8.3301684956687918      73.804311334846304      27.781369572579351
  4091  29      11.295628378208807      61.341376140242645      33.098623693413593
  4092  29      13.948817417943342      73.676705529029391      26.814164785940918
  4093  29      9.6653089456459877      61.293903192423755      28.935591594335058
  4094  29      15.579176847014505      73.629264196270952       30.97719763001712
  4095  29      12.779401568040843       61.93768556540163      28.526534953105749
  4096  29      12.465020943030293      49.602341097055643      31.386041140409848
  4097   7      16.866611914927756      62.504066614037846      28.464236368513934
  4098   7         8.3779561599573      50.168807952318474      31.448480955688837
  4099   7      16.388365146988448      62.921851696372848      29.510066478708698
  4100   7      8.8561553182856638      50.586629535438476      30.402657398674371
  4101   7      12.981808358721947      62.874000890813903      31.469989368586774
  4102   7      12.262585396195007      50.538640614913326      28.442628477929262
  4103   7      9.5995919072024396      59.966856952155226      34.875774342923251
  4104   7      15.644723279947492      72.302205436743193      25.036834295890401
  4105   7      12.621920255587074      60.507729718107157      34.381214070712986
  4106   7      12.622485253174558      72.843120139390535      25.531445866072477
  4107   7      14.750581531036602      60.489254952344204      25.644141341258095
  4108   7      10.493936467384689      72.824648256423416      34.268605525904164
  4109   7      11.222292690317573      62.527005024923788      24.868720483543623
  4110   7      14.021995989380457       50.19145770998329         35.044030972087
  4111   7      8.6687949902958685      59.171122859594817      30.585170393076364
  4112   7      16.575733262365819      71.506569195225552      29.327476826684205
  4113   7      12.629616070061685      59.293651713778644      34.572099595713851
  4114   7      12.614737385533674      71.629014820670108      25.340717949781364
  4115   7      13.195376846763434      63.145489236190258      30.340033778821379
  4116   7      12.049099482242369      50.810187240271254       29.57258485936083
  4117   7      9.9306715926019997      62.385061564641134      32.006030311176701
  4118   7      15.313802507305638       50.04977045396496      27.906579803472507
  4119   7      15.143469425433491      60.515973946777152      32.444998953562468
  4120   7      10.101077115580948      72.851432098498975      27.467669015364148
  4121   7      9.3444378828166847      58.781376157505562      27.262260410182638
  4122   7      15.899852646209528      71.116662298957209       32.65046453037796
  4123   7      9.7159394653904432      60.232801319851653      33.703784724174533
  4124   7      15.528474320415494      72.568155561153389      26.208829323333983
  4125   7      8.3080678975909432      62.090040934455139      25.701825610312387
  4126   7        16.9362075936304      49.754721536528756      34.210953796064771
  4127   7      14.470362572850105      59.605202772456771      28.745078376732561
  4128   7      10.774182189681277      71.940731135860347      31.167481250907461
  4129   7      10.677886832128223       63.20322740472848      35.870742921496628
  4130   7      14.566433974265241      50.867663146250329      24.041986247250936
  4131   7       8.654891171801717      60.397534186508764      30.490477617074426
  4132   7      16.589581683802969      72.733001040443327      29.422204375809205
  4133   7      11.935555055196115      59.709028576459559      31.544933267083003
  4134   7      13.308958206621877      72.044434164246013      28.367713305018647
  4135   7      16.971383933298469      63.208655698902049      25.225721672195384
  4136   7      8.2729764507006092      50.873316296231529      34.687079986881727
  4137   7      13.715921037476773      63.887763597797758       35.54076565172263
  4138   7      11.528397414282171      51.552356835676335      24.371901959376601
  4139   7      14.488397317925367      60.813561617439476      28.523615617037816
  4140   7      10.755960874592493      73.149077735380018      31.388997704473105
  4141   7      11.535943130227801      60.399791716209499      29.287019675007151
  4142   7      13.708323132174026      72.735092195985544      30.625698710764588
  4143   7      13.696686049004903      62.964509231200637       26.99392292705889
  4144   7      11.547785354624956      50.629172893296861      32.918826674737502
  4145   7      16.121749441911128      63.829834167831791      33.499781283801099
  4146   7      9.1227696375979423      51.494518366511933      26.412903746112868
  4147   7      12.793370493675042      62.645987398164088      32.646780233239539
  4148   7      12.450993618962205      50.310538387914164      27.265848150440345
  4149   7      11.904466431435671      60.342817172673122       26.06363224163799
  4150   7      13.339888157646129      72.678100169176815      33.849079807106463
  4151   7      9.1645008391933569      59.992756853731606      27.224829461612394
  4152   7      16.079928025240669      72.328025746332074      32.687929897177661
  4153   7      10.947301328829404      62.744394149551113      28.318387685637639
  4154   7       14.29713211750736      50.409222315667854      31.594267775878066
  4155   7      13.854925809025691      62.672986231263891       35.68456566937094
  4156   7      11.389445075720666      50.337579156690452      24.228091574139892
  4157   7      12.214350884844121      59.157033270687805      26.145633686124061
  4158   7      13.029973657427103        71.4923193647044      33.767097129537632
  4159   7      15.290706995795357      60.208574129616309      24.585012727847765
  4160   7      9.9537263218624918      72.543908514615168      35.327687186059563
  4161   7      13.259570724132175      67.498536576483644      30.198534824044291
  4162   7      11.984819065474319      55.163091238764309      29.714129736704269
  4163   7      16.327158911427446      55.699737804451203      35.834065230553222
  4164   7      8.9172283344354586      68.035178624949026      24.078408883202766
  4165   7      13.795143180498691      64.183557372654874      26.938697988928222
  4166   7      11.449382234840641      51.848221864586712      32.974094266473514
  4167   7       16.15567381895038      62.608660066530881       33.64568957826657
  4168   7      9.0887554826385095      50.273357913329171      26.266868920129518
  4169   7      10.013996711598127      63.606076216725072      31.884811940033348
  4170   7      15.230443405966195      51.270774824675421      28.027831317875119
  4171   7      11.746391972817101      60.046824258489423      30.435137866799195
  4172   7      13.497975413257073      72.382211585978567      29.477545800442748
  4173   7      14.994767517400067      59.296562423856848      32.401400739163861
  4174   7       10.24965677380184      71.632006040271321      27.511173156499073
  4175   7      8.6834640039641044      58.005630843372877      30.666232466172914
  4176   7      16.561081410055543      70.341056547619374      29.246489387301953
  4177   7      10.685421684560662      63.813157991691881      27.781493974259554
  4178   7       14.55900634157414       51.47797073982391       32.13121037010923
  4179   7      10.401739676603711       63.86795315440461      34.949221625096172
  4180   7      14.842694450101057      51.532419381617984      24.963446740251069
  4181   7      14.812929414941227      58.144980626226705       32.34578269614066
  4182   7      10.431258211638522      70.480386301077189      27.566663222639818
  4183   7      12.536665130447329      58.040183363138794      26.240091163037157
  4184   7      12.707601085128598      70.375472817604276      33.672769155363646
  4185   7       9.489730750095811      57.618310625348784      27.291204852164249
  4186   7      15.754411629745281      69.953611545519308      32.621455284631935
  4187   7      12.651132214165298      58.149327678888355      34.809564292904142
  4188   7      12.593272351721829      70.484655830135381        25.1034451756551
  4189   7      15.463446005448796       59.97285543113896      35.498212392513608
  4190   7      9.7807731913490574      72.308181912778849      24.414390897723958
  4191   7       10.43317276120619       64.83462669362028      27.273208460835871
  4192   7      14.811095612275846      52.499530514990276      32.639413476340181
  4193   7      14.472307369940648       58.45950345939432      28.977412747765406
  4194   7      10.772330723759984      70.795015556761768      30.935231565923281
  4195   7      16.019813729266925      63.294302501430977      30.557065436675302
  4196   7       9.224680056763372      50.959209228689922      29.355684326136608
  4197   7      13.596648568511593       65.04067014528718      35.407376314471861
  4198   7      11.647646661592209      52.705267497412621      24.505254065608327
  4199   7       9.690735297878815      59.666634925850936      24.028627970414149
  4200   7      15.553556487256795      72.001996528340982      35.883971790227235
  4201   7      10.087524117561525       64.76022624864973      31.730538555105014
  4202   7      15.156942660722445      52.424935618471871      28.182104552741144
  4203   7      16.099482094152084      64.989366709943639      33.378005682476235
  4204   7      9.1450970469533726      52.654029113575035        26.5348454876274
  4205   6      9.0805977316608431      55.156579966417937      24.377224252507162
  4206   6      16.163772430996392      67.491991114437511      35.535315629159257
  4207   1      8.9291489154134691      54.981489729592269      25.445008217813932
  4208   1      16.315200846462162      67.317073462336225      34.467509830596541
  4209   1      8.9808508455257137      54.177248466842897      35.897791493019028
  4210   1       16.26358243669716      66.512627472333492      24.014706158030297
  4211   7      16.779002842552647      64.265682718711901      24.770892899758994
  4212   7      8.4653748880405164      51.930340059439018      35.141913632724915
  4213   6      10.738649571719538      67.495520652421931      29.728990531251171
  4214   6      14.505783851259938      55.159919042409641       30.18325190140304
  4215   1      10.770861904723128      68.465904739584772      29.224675206630774
  4216   1      14.473633747978173      56.130460058830835       30.68729539170414
  4217   1      10.400109503066222      67.645047444943174      30.758508763263432
  4218   1      14.844143758304361      55.309066520679963      29.153618452639616
  4219   1      9.9859192194457709      66.880205416592034      29.222548031985276
  4220   1      15.258575982973513      54.544696831407393      30.689725495727824
  4221   6      10.277787600126507       56.05671387990288       24.13359803585524
  4222   6      14.966644245460568      68.392115739649029      35.778999019624791
  4223   1      10.334998080873504      56.076690206361981      35.065531369460089
  4224   1      14.909544849411944      68.412283702665349      24.847072444191046
  4225   1      11.117423502868679       55.65180981668577      24.708409998332012
  4226   1      14.126907769782278      67.987177350510095      35.204383399873343
  4227   1      10.120880338670601      57.084771447756083      24.471604311786404
  4228   1      15.123536858249993      69.420077718948207      35.440772427904804
  4229   6      13.479287682450519      68.795909374226056      29.421410807137558
  4230   6      11.765185649407876      56.460477030915499      30.491327980578681
  4231   1      12.694517146422822      69.484837858832876      29.750644371324885
  4232   1      12.549855367125907      57.149498022111992      30.162021565451333
  4233   1      14.434458596864356      69.198855692589092      29.769629745461387
  4234   1      10.809935410486947      56.863485554311339      30.143327372441497
  4235   6      13.056863097050714      67.905956870375888      31.651023865862467
  4236   6      12.187420190365366      55.570505454836429      28.261660327056273
  4237   1      12.184420563428667      68.565835286906633      31.665992271855917
  4238   1      13.059710728724731      56.230596700267469      28.246657548064633
  4239   1      13.920725571939052      68.521848945224136      31.918492246861192
  4240   1      11.323380447452639      56.186168010827409      27.994372911539489
  4241   6      15.753486051163975      67.059675291035688      30.679893716631547
  4242   6      9.4908948153340358      54.724089578301957      29.232757471033914
  4243   1      16.086260421116968      68.021872282364924      30.280544684735059
  4244   1      9.1578026595413231      55.685992911747086      29.632454263192272
  4245   1      16.526986983965962      66.312972047097389      30.460189340001737
  4246   1      8.7175428101744146      53.977210818239179      29.452337124703806
  4247   1      15.685846659942914      67.133517093968862      31.768318523808432
  4248   1      9.5586854568004007      54.798363085280712      28.144361406284887
  4249   7      13.928861303399604      65.345617636282611      26.843360389258422
  4250   7       11.31576620838687      53.010298812792691      33.069442551146672
  4251   6      12.052263560410962        66.7393994988457      29.657310317840896
  4252   6      13.192130074619485      54.403907175772765      30.255282153539934
  4253   1       12.30257460667867      66.472712814158754      28.626223354994156
  4254   1      12.942075176029689      54.137316976460149      31.286469121615717
  4255   1      11.994383647367318      65.805290268648392      30.222764918588581
  4256   1      13.249843990057975      53.469736893550248      29.689902012578766
  4257   6      14.462721969061406      66.565597163545718      30.052652071008055
  4258   6       10.78165829719671      54.230167873523655      29.860031352727379
  4259   1       14.16338538279444      65.607282085985119      30.489490752866875
  4260   1      11.080963239260925      53.271852022002342      29.423213090938802
  4261   1      14.582397689525008      66.394599673996581       28.97841138501796
  4262   1      10.661886523625485      54.059268929643913      30.934285151115603
  4263   6      13.969764580416491      54.897897716737099      35.271511715140448
  4264   6       11.27455500629679      67.233298509652641      24.641163332249171
  4265   1      13.981840929794863      54.987291557379855      34.181045324583692
  4266   1      11.262107752201166      67.322632289373942      25.731631304012623
  4267   1      13.568622183621518       55.82654737511789      35.688707692699055
  4268   1      11.675770310893029       68.16193231140781      24.224049689329377
  4269   1      13.271187701603296      54.090669324318839      35.522341893662052
  4270   1      11.973083351402126      66.425945200262632      24.390533345539474
  4271   6      15.338312336933958      54.538845469604581      35.819286524596841
  4272   6      9.9060690039216901      66.874291975808234      24.093196199043227
  4273   1      15.532798112791113      54.162778711505439      24.862940478806863
  4274   1      9.7116786961550829      66.498216380314346      35.049532148043937
  4275   1      15.798470568638724      53.746737700166364      35.224142806656232
  4276   1      9.4459711022011152      66.082203779702596      24.688418366775625
  4277   6      12.890699903790338      66.747654115988809       32.61479456952452
  4278   6      12.353653822262025      54.412274871808691      27.297901543580561
  4279   1      12.002273233659858      66.142637136324637      32.409100918942904
  4280   1      13.242268455251789      53.807513882987962        27.5033585769824
  4281   1      12.772166836080894      67.165064799826069      33.620993932397937
  4282   1      12.471982544390485      54.829762054362305      26.291758245428852
  4283   1      13.768836819007799      66.095713291302047      32.649984295850878
  4284   1      11.475703838252574      53.760098013858695      27.262757781460738
  4285   6      16.485711503041991      56.291871798661944      34.443560635932911
  4286   6      8.7587301824174446      68.627444701229621      25.468862670093142
  4287   1      8.3437137551519118      57.139720792748015      34.546613616795192
  4288   1      16.900605105436703      69.475173047723274      25.365672890974121
  4289   1      15.512729517309655      56.705759459870684      34.163646104318062
  4290   1      9.7317505513316647      69.041314688066677      25.748707142378194
  4291   6      8.1447832763356551       55.30748225747962      33.394326637576874
  4292   6        17.0997319261249       67.64314521456545      26.518195409566385
  4293   1      8.3146773549790272      55.873557933147865      32.469526796397723
  4294   1       16.92963026109841      68.209215403649623      27.442966163728745
  4295   1      16.231372810959382      54.528643640615257      33.181995232020867
  4296   1       9.013269222635234      66.864430281391776      26.730491758784179
  4297   1      9.0852661449284255      54.820553841758915       33.67300743698889
  4298   1      16.159400556101726      67.155949163864619      26.239521420901941
  4299   6      13.464100349935599      68.650005264282768      27.911366557397464
  4300   6      11.780608461001089      56.314504196676992      32.001432620588048
  4301   1      12.451841110571962      68.504336859486372        27.5236011837838
  4302   1      12.792867124966772      56.168405849978612      32.389135151745521
  4303   1      14.097565453748107      67.834134651435335      27.557372826066985
  4304   1      11.146852664647241      55.498787675887598      32.355356753837938
  4305   1       13.84272181378515      69.583109320755639      27.480071079196378
  4306   1      11.402384761764678      57.247694394507931      32.432941673517099
  4307   6      16.078991240706689      56.824715152315704      24.762463233022583
  4308   6         9.1654628346694      69.160127982869625      35.149974534639327
  4309   1      16.924287604803119       57.50855545302624      24.883258225648742
  4310   1      8.3202013982387584      69.843977424071909      35.029122870274065
  4311   1      15.303041599974161      57.357976038859334      24.204186951034082
  4312   1       9.941411537066978      69.693407721126903      35.708239366647561
  4313   6      15.542761248841598      56.358013665202627      26.102885063155334
  4314   6      9.7016286767884647      68.693356078009856      33.809561819114244
  4315   1      14.583413164099639      55.845844843468697      25.992133859936427
  4316   1       10.66097906485269      68.181201358009602      33.920323509498012
  4317   1      15.373010648525661       57.23749288170265      26.734866673054466
  4318   1      9.8713483338555097      69.572758823932418       33.17745114460363
  4319   1      16.238910558454545      55.703726989140584      26.636266154754029
  4320   1      9.0053772042387923      68.039028930370606      33.276366560482742
  4321  29      22.415087953917219      12.394432086166814      1.2156974010452735
  4322  29      21.467118957256105    0.059100540835926106      10.766810207337304
  4323  29      19.356346515775751      11.702602188148525      1.7047931139663628
  4324  29      24.525710991349715      24.037949938320235      10.277710443304878
  4325  29      23.729682650626298      12.236808138814082      10.073406194720627
  4326  29       20.15251349074536      24.572255114219377      1.9091447428815596
  4327  29      25.100032802532677      12.131435313334975       3.128665912857663
  4328  29      18.782047248041561      24.466847363361527      8.8539647392064484
  4329  29      26.233320190919557      12.127204884175669      8.1664424194667404
  4330  29      17.649037021622316      24.462775815799368      3.8163140616331384
  4331  29      20.614496904162333      11.999840621195712      9.1335681824673802
  4332  29      23.267685943896868      24.335170009982455      2.8491092749947078
  4333  29      18.984177471599516       11.95236767337682       4.970536083388847
  4334  29      24.898045372968031       24.28772867722402      7.0121421190709086
  4335  29      22.098270093994369      12.596150046354696      4.5614794421595377
  4336  29      21.783889468983819     0.26080557800870857      7.4209856294636376
  4337   7      26.185480440881282      13.162531094990909      4.4991808575677226
  4338   7      17.696824685910826     0.82727243327153765      7.4834254447426245
  4339   7      25.707233672941975      13.580316177325914      5.5450109677624866
  4340   7      18.175023844239192      1.2450940163915383      6.4376018877281602
  4341   7      22.300676884675475      13.532465371766971      7.5049338576405642
  4342   7      21.581453922148533      1.1971050958663902      4.4775729669830495
  4343   7      18.918460433155968      10.625321433108287      10.910718831977039
  4344   7      24.963591805901018      22.960669917696254      1.0717787849441902
  4345   7      21.940788781540601      11.166194199060223      10.416158559766773
  4346   7      21.941353779128086      23.501584620343596       1.566390355126267
  4347   7      24.069450056990128       11.14771943329727       1.679085830311885
  4348   7      19.812804993338215      23.483112737376487      10.303550014957949
  4349   7      20.541161216271099      13.185469505876853     0.90366497259741219
  4350   7      23.340864515333983     0.84992219093635613      11.078975461140789
  4351   7      17.987663516249395       9.829587340547878      6.6201148821301521
  4352   7      25.894601788319346      22.165033676178609      5.3624213157379943
  4353   7      21.948484596015213      9.9521161947317083      10.607044084767642
  4354   7      21.933605911487199      22.287479301623179      1.3756624388351535
  4355   7       22.51424537271696      13.803953717143322       6.374978267875167
  4356   7      21.367968008195895      1.4686517212243198      5.6075293484146211
  4357   7      19.249540118555526      13.043526045594195      8.0409748002304884
  4358   7      24.632671033259165     0.70823493491802303      3.9415242925262959
  4359   7      24.462337951387017       11.17443842773022      8.4799434426162552
  4360   7      19.419945641534476      23.509896579452032      3.5026135044179361
  4361   7      18.663306408770211      9.4398406384586231      3.2972048992364256
  4362   7      25.218721172163054       21.77512677991027      8.6854090194317504
  4363   7      19.034807991343968      10.891265800804716      9.7387292132283196
  4364   7       24.84734284636902      23.226620042106454      2.2437738123877731
  4365   7      17.626936423544468      12.748505415408202      1.7367700993661772
  4366   7      26.255076119583926      0.4131860174818171      10.245898285118564
  4367   7      23.789231098803633      10.263667253409833      4.7800228657863491
  4368   7      20.093050715634803      22.599195616813418      7.2024257399612486
  4369   7      19.996755358081749      13.861691885681548      11.905687410550415
  4370   7      23.885302500218767      1.5261276272033957    0.076930736304725078
  4371   7      17.973759697755241      11.055998667461829      6.5254221061282127
  4372   7      25.908450209756495      23.391465521396388      5.4571488648629929
  4373   7      21.254423581149641       10.36749305741262      7.5798777561367912
  4374   7      22.627826732575404       22.70289864519907      4.4026577940724367
  4375   7      26.290252459251995       13.86712017985511      1.2606661612491736
  4376   7      17.591844976654134      1.5317807771845922       10.72202447593552
  4377   7      23.034789563430301       14.54622807875082      11.575710140776419
  4378   7      20.847265940235697      2.2108213166293993     0.40684644843038786
  4379   7      23.807265843878895      11.472026098392538      4.5585601060916048
  4380   7      20.074829400546019      23.807542216333086      7.4239421935268934
  4381   7      20.854811656181329      11.058256197162565      5.3219641640609412
  4382   7      23.027191658127553      23.393556676938612      6.6606431998183764
  4383   7      23.015554574958429      13.622973712153703      3.0288674161126767
  4384   7      20.866653880578482      1.2876373742499221      8.9537711637912931
  4385   7      25.440617967864654      14.488298648784859      9.5347257728548875
  4386   7       18.44163816355147      2.1529828474649992      2.4478482351666573
  4387   7      22.112239019628568      13.304451879117154      8.6817247222933318
  4388   7      21.769862144915731     0.96900286886722975      3.3007926394941349
  4389   7      21.223334957389199       11.00128165362619      2.0985767306917804
  4390   7      22.658756683599655      23.336564650129873      9.8840242961602485
  4391   7      18.483369365146885      10.651221334684667       3.259773950666184
  4392   7      25.398796551194195      22.986490227285138      8.7228743862314513
  4393   7       20.26616985478293      13.402858630504177      4.3533321746914284
  4394   7      23.616000643460886      1.0676867966209214      7.6292122649318568
  4395   7      23.173794334979217      13.331450712216956      11.719510158424725
  4396   7      20.708313601674192     0.99604363764351944     0.26303606319368061
  4397   7      21.533219410797649      9.8154977516408675      2.1805781751778497
  4398   7      22.348842183380629      22.150783845657468       9.802041618591419
  4399   7      24.609575521748884      10.867038610569372     0.61995721690155225
  4400   7      19.272594847816016      23.202372995568236      11.362631675113349
  4401   7      22.578439250085701      18.157001057436705      6.2334793130980799
  4402   7      21.303687591427845      5.8215557197173764      5.7490742257580587
  4403   7      25.646027437380972      6.3582022854042641      11.869009719607009
  4404   7      18.236096860388983      18.693643105902098     0.11335337225655616
  4405   7      23.114011706452217      14.842021853607944      2.9736424779820125
  4406   7      20.768250760794167       2.506686345539777      9.0090387555273015
  4407   7      25.474542344903906      13.267124547483945      9.6806340673203568
  4408   7      18.407624008592038     0.93182239428223557      2.3018134091833065
  4409   7      19.332865237551651      14.264540697678134      7.9197564290871378
  4410   7      24.549311931919721      1.9292393056284876      4.0627758069289097
  4411   7      21.065260498770627      10.705288739442491      6.4700823558529832
  4412   7        22.8168439392106      23.040676066931635      5.5124902894965349
  4413   7      24.313636043353593      9.9550269048099107      8.4363452282176503
  4414   7      19.568525299755368      22.290470521224389       3.546117645552862
  4415   7      18.002332529917631      8.6640953243259435      6.7011769552267015
  4416   7      25.879949936009069      20.999521028572442      5.2814338763557416
  4417   7      20.004290210514188      14.471622472644942      3.8164384633133417
  4418   7      23.877874867527666       2.136435220776975      8.1661548591630222
  4419   7      19.720608202557237      14.526417635357674      10.984166114149959
  4420   7      24.161562976054583      2.1908838625710487     0.99839122930485635
  4421   7      24.131797940894753      8.8034451071797672      8.3807271851944467
  4422   7      19.750126737592048       21.13885078203025      3.6016077116936072
  4423   7      21.855533656400855      8.6986478440918553      2.2750356520909465
  4424   7      22.026469611082124      21.033937298557337       9.707713644417435
  4425   7      18.808599276049339      8.2767751063018515      3.3261493412180396
  4426   7      25.073280155698807      20.612076026472369      8.6563997736857257
  4427   7      21.970000740118824      8.8077921598414211      10.844508781957927
  4428   7      21.912140877675355      21.143120311088445      1.1383896647088887
  4429   7      24.782314531402321      10.631319912092026      11.533156881567393
  4430   7      19.099641717302582      22.966646393731917     0.44933538677774715
  4431   7      19.752041287159717      15.493091174573344        3.30815294988966
  4432   7      24.129964138229372      3.1579949959433438      8.6743579653939733
  4433   7      23.791175895894174      9.1179679403473859      5.0123572368191969
  4434   7      20.091199249713508       21.45348003771484      6.9701760549770704
  4435   7      25.338682255220451      13.952766982384045      6.5920099257290907
  4436   7      18.543548582716898       1.617673709642989      5.3906288151903956
  4437   7       22.91551709446512      15.699134626240241      11.442320803525647
  4438   7      20.966515187545735      3.3637319783656818     0.54019855466211697
  4439   7      19.009603823832339      10.325099406804002    0.063572459467938755
  4440   7      24.872425013210322      22.660461009294043      11.918916279281023
  4441   7      19.406392643515051      15.418690729602799      7.7654830441588034
  4442   7      24.475811186675969      3.0834000994249364      4.2170490417949322
  4443   7       25.41835062010561      15.647831190896705      9.4129501715300243
  4444   7      18.463965572906897      3.3124935945281022      2.5697899766811876
  4445   6      18.399466257614371       5.815044447371001     0.41216874156095079
  4446   6      25.482640956949918      18.150455595390575      11.570260118213042
  4447   1      18.248017441366994      5.6399542105453371      1.4799527068677203
  4448   1      25.634069372415688      17.975537943289297      10.502454319650329
  4449   1      18.299719371479238      4.8357129477959591      11.932735982072813
  4450   1      25.582450962650686      17.171091953286563    0.049650647084087035
  4451   7      26.097871368506173      14.924147199664958     0.80583738881278266
  4452   7      17.784243413994044       2.588804540392081      11.176858121778706
  4453   6      20.057518097673064      18.153985133374988      5.7639350203049595
  4454   6      23.824652377213464      5.8183835233627033      6.2181963904568294
  4455   1      20.089730430676653      19.124369220537833      5.2596196956845622
  4456   1      23.792502273931699      6.7889245397838964      6.7222398807579298
  4457   1      19.718978029019748      18.303511925896238        6.79345325231722
  4458   1      24.163012284257888      5.9675310016330236      5.1885629416934043
  4459   1      19.304787745399299      17.538669897545098      5.2574925210390653
  4460   1      24.577444508927037      5.2031613123604581       6.724669984781614
  4461   6      19.596656126080035      6.7151783608559468     0.16854252490902921
  4462   6      24.285512771414094      19.050580220602086      11.813943508678584
  4463   1       19.65386660682703      6.7351546873150481       11.10047585851388
  4464   1       24.22841337536547      19.070748183618417      0.8820169332448351
  4465   1      20.436292028822205      6.3102742976388324     0.74335448738580023
  4466   1      23.445776295735804      18.645641831463156       11.23932788892713
  4467   1      19.439748864624129      7.7432359287091463     0.50654880084019216
  4468   1      24.442405384203518      20.078542199901271      11.475716916958596
  4469   6      22.798156208404045      19.454373855179121      5.4563552961913473
  4470   6      21.084054175361402      7.1189415118685595      6.5262724696324712
  4471   1      22.013385672376348      20.143302339785937      5.7855888603786729
  4472   1      21.868723893079434      7.8079625030650543      6.1969660545051228
  4473   1      23.753327122817883      19.857320173542163      5.8045742345151758
  4474   1      20.128803936440473       7.521950035264406      6.1782718614952854
  4475   6      22.375731623004242      18.564421351328946      7.6859683549162563
  4476   6      21.506288716318892       6.228969935789495      4.2966048161100616
  4477   1      21.503289089382193      19.224299767859694      7.7009367609097064
  4478   1      22.378579254678257      6.8890611812205309      4.2816020371184234
  4479   1      23.239594097892578      19.180313426177204      7.9534367359149813
  4480   1      20.642248973406165      6.8446324917804739      4.0293174005932784
  4481   6      25.072354577117501      17.718139771988746      6.7148382056853375
  4482   6      18.809763341287564      5.3825540592550229      5.2677019600877015
  4483   1      25.405128947070494      18.680336763317992      6.3154891737888477
  4484   1      18.476671185494851      6.3444573927001517      5.6673987522460632
  4485   1      25.845855509919488      16.971436528050454      6.4951338290555247
  4486   1      18.036411336127941      4.6356752991922443      5.4872816137575953
  4487   1       25.00471518589644      17.791981574921923      7.8032630128622218
  4488   1      18.877553982753927      5.4568275662337777      4.1793058953386746
  4489   7       23.24772982935313      16.004082117235679      2.8783048783122096
  4490   7      20.634634734340398      3.6687632937457555      9.1043870402004607
  4491   6      21.371132086364486      17.397863979798768      5.6922548068946845
  4492   6      22.510998600573011      5.0623716567258317      6.2902266425937228
  4493   1      21.621443132632198      17.131177295111822      4.6611678440479443
  4494   1      22.260943701983216      4.7957814574132129      7.3214136106695067
  4495   1      21.313252173320844       16.46375474960146       6.257709407642368
  4496   1      22.568712516011502      4.1282013745033135      5.7248465016325545
  4497   6      23.781590495014932      17.224061644498779      6.0875965600618427
  4498   6      20.100526823150236      4.8886323544767158      5.8949758417811671
  4499   1      23.482253908747964      16.265746566938184      6.5244352419206626
  4500   1      20.399831765214451      3.9303165029554052      5.4581575799925917
  4501   1      23.901266215478536      17.053064154949649      5.0133558740717481
  4502   1      19.980755049579013      4.7177334105969795      6.9692296401693898
  4503   6      23.288633106370018      5.5563621976901656      11.306456204194236
  4504   6      20.593423532250316      17.891762990605702     0.67610782130296165
  4505   1       23.30070945574839      5.6457560383329186       10.21598981363748
  4506   1      20.580976278154694       17.98109677032701      1.7665757930664105
  4507   1      22.887490709575044      6.4850118560709529      11.723652181752843
  4508   1      20.994638836846555      18.820396792360881     0.25899417838316663
  4509   1      22.590056227556822      4.7491338052719039      11.557286382715841
  4510   1      21.291951877355654      17.084409681215693     0.42547783459326416
  4511   6      24.657180862887486      5.1973099505576448      11.854231013650629
  4512   6      19.224937529875216      17.532756456761298      0.1281406880970157
  4513   1      24.851666638744639      4.8212431924585024     0.89788496786065197
  4514   1      19.030547222108609      17.156680861267414       11.08447663709773
  4515   1       25.11733909459225      4.4052021811194315      11.259087295710025
  4516   1       18.76483962815464      16.740668260655664     0.72336285582941362
  4517   6      22.209568429743864      17.406118596941866      8.6497390585783123
  4518   6      21.672522348215551      5.0707393527617555      3.3328460326343503
  4519   1      21.321141759613386      16.801101617277705      8.4440454079966951
  4520   1      22.561136981205316      4.4659783639410282      3.5383030660361872
  4521   1      22.091035362034418       17.82352928077913      9.6559384214517223
  4522   1      21.790851070344011      5.4882265353153734      2.3267027344826414
  4523   1      23.087705344961325      16.754177772255105       8.684928784904665
  4524   1        20.7945723642061      4.4185624948117628      3.2977022705145274
  4525   6      25.804580028995517      6.9503362796150077      10.478505124986702
  4526   6      18.077598708370971      19.285909182182682      1.5038071591469302
  4527   1      17.662582281105436      7.7981852737010824      10.581558105848979
  4528   1       26.21947363139023      20.133637528676338      1.4006173800279111
  4529   1      24.831598043263181      7.3642239408237486      10.198590593371854
  4530   1      19.050619077285191      19.699779169019745      1.7836516314319844
  4531   6      17.463651802289181      5.9659467384326881       9.429271126630665
  4532   6      26.418600452078426      18.301609695518518      2.5531398986201723
  4533   1      17.633545880932552      6.5320224141009309      8.5044712854515137
  4534   1      26.248498787051936      18.867679884602683      3.4779106527825343
  4535   1      25.550241336912908      5.1871081215683228      9.2169397210746542
  4536   1       18.33213774858876      17.522894762344848      2.7654362478379682
  4537   1      18.404134670881952      5.4790183227119806      9.7079519260426785
  4538   1      25.478269082055252      17.814413644817687      2.2744659099557287
  4539   6      22.782968875889125      19.308469745235833      3.9463110464512514
  4540   6      21.099476986954617      6.9729686776300577      8.0363771096418386
  4541   1      21.770709636525488      19.162801340439433      3.5585456728375893
  4542   1      22.111735650920298      6.8268703309316772       8.424079640799313
  4543   1      23.416433979701633      18.492599132388399      3.5923173151207748
  4544   1      20.465721190600767      6.1572521568406655      8.3903012428917254
  4545   1      23.161590339738677        20.2415738017087      3.5150155682501687
  4546   1      20.721253287718206      7.9061588754609984      8.4678861625708883
  4547   6      25.397859766660215      7.4831796332687723     0.79740772207637278
  4548   6      18.484331360622928      19.818592463822696      11.184919023693116
  4549   1      26.243156130756645      8.1670199339793044     0.91820271470253068
  4550   1      17.639069924192285       20.50244190502498      11.064067359327856
  4551   1      24.621910125927688      8.0164405198124005     0.23913144008786985
  4552   1      19.260280063020506      20.351872202079967      11.743183855701348
  4553   6      24.861629774795126      7.0164781461556895      2.1378295522091237
  4554   6      19.020497202741993      19.351820558962917      9.8445063081680342
  4555   1      23.902281690053165       6.504309324421758      2.0270783489902171
  4556   1      19.979847590806216      18.839665838962663      9.9552679985518022
  4557   1      24.691879174479187      7.8959573626557109       2.769811162108256
  4558   1      19.190216859809034      20.231223304885475      9.2123956336574171
  4559   1      25.557779084408072      6.3621914700936459      2.6712106438078189
  4560   1       18.32424573019232       18.69749341132367      9.3113110495365348
  4561  29      22.168526517615469      12.394430506387524      13.198225156518379
  4562  29      21.220557520954355    0.059098961056636229      22.749337962810408
  4563  29      19.109785079474001      11.702600608369234      13.687320869439468
  4564  29      24.279149555047965      24.037948358540945      22.260238198777984
  4565  29      23.483121214324548      12.236806559034791      22.055933950193733
  4566  29       19.90595205444361      24.572253534440087      13.891672498354666
  4567  29      24.853471366230927      12.131433733555685      15.111193668330769
  4568  29      18.535485811739811      24.466845783582237      20.836492494679554
  4569  29       25.98675875461781      12.127203304396378      20.148970174939848
  4570  29      17.402475585320566      24.462774236020078      15.798841817106243
  4571  29      20.367935467860583      11.999839041416422      21.116095937940486
  4572  29      23.021124507595118      24.335168430203165      14.831637030467814
  4573  29      18.737616035297766      11.952366093597529      16.953063838861951
  4574  29      24.651483936666281       24.28772709744473      18.994669874544016
  4575  29      21.851708657692619      12.596148466575405      16.544007197632645
  4576  29      21.537328032682069     0.26080399822941869      19.403513384936744
  4577   7      25.938919004579532      13.162529515211618       16.48170861304083
  4578   7      17.450263249609076     0.82727085349224783      19.465953200215729
  4579   7      25.460672236640221      13.580314597546623      17.527538723235594
  4580   7      17.928462407937442      1.2450924366122484      18.420129643201264
  4581   7      22.054115448373722      13.532463791987681       19.48746161311367
  4582   7      21.334892485846783      1.1971035160871004      16.460100722456154
  4583   7      18.671898996854218      10.625319853328996      22.893246587450143
  4584   7      24.717030369599268      22.960668337916964      13.054306540417295
  4585   7      21.694227345238851      11.166192619280933      22.398686315239878
  4586   7      21.694792342826332      23.501583040564306      13.548918110599372
  4587   7      23.822888620688378       11.14771785351798      13.661613585784991
  4588   7      19.566243557036465      23.483111157597197      22.286077770431056
  4589   7      20.294599779969349      13.185467926097562      12.886192728070517
  4590   7      23.094303079032233      0.8499206111570663      23.061503216613893
  4591   7      17.741102079947645      9.8295857607685875      18.602642637603257
  4592   7      25.648040352017595      22.165032096399319      17.344949071211101
  4593   7      21.701923159713459      9.9521146149524178      22.589571840240747
  4594   7      21.687044475185452      22.287477721843889      13.358190194308259
  4595   7       22.26768393641521      13.803952137364032      18.357506023348272
  4596   7      21.121406571894145      1.4686501414450299      17.590057103887727
  4597   7      19.002978682253776      13.043524465814905      20.023502555703594
  4598   7      24.386109596957414      0.7082333551387332      15.924052047999401
  4599   7      24.215776515085267      11.174436847950929      20.462471198089361
  4600   7      19.173384205232722      23.509894999672742      15.485141259891041
  4601   7      18.416744972468461      9.4398390586793326       15.27973265470953
  4602   7      24.972159735861304      21.775125200130979      20.667936774904856
  4603   7      18.788246555042221      10.891264221025425      21.721256968701425
  4604   7       24.60078141006727      23.226618462327163       14.22630156786088
  4605   7      17.380374987242718      12.748503835628911      13.719297854839283
  4606   7      26.008514683282179     0.41318443770252722      22.228426040591671
  4607   7      23.542669662501879      10.263665673630543      16.762550621259454
  4608   7      19.846489279333053      22.599194037034128      19.184953495434353
  4609   7      19.750193921779999      13.861690305902258      23.888215166023521
  4610   7      23.638741063917017      1.5261260474241058       12.05945849177783
  4611   7      17.727198261453491      11.055997087682538      18.507949861601318
  4612   7      25.661888773454749      23.391463941617097      17.439676620336098
  4613   7      21.007862144847891       10.36749147763333      19.562405511609896
  4614   7      22.381265296273654       22.70289706541978      16.385185549545543
  4615   7      26.043691022950245       13.86711860007582       13.24319391672228
  4616   7      17.345283540352384      1.5317791974053023      22.704552231408627
  4617   7      22.788228127128548       14.54622649897153      23.558237896249523
  4618   7      20.600704503933947      2.2108197368501092      12.389374203903493
  4619   7      23.560704407577141      11.472024518613248      16.541087861564712
  4620   7      19.828267964244269      23.807540636553796      19.406469948999998
  4621   7      20.608250219879579      11.058254617383275      17.304491919534048
  4622   7      22.780630221825803      23.393555097159322      18.643170955291481
  4623   7      22.768993138656679      13.622972132374413      15.011395171585782
  4624   7      20.620092444276732      1.2876357944706323      20.936298919264399
  4625   7      25.194056531562904      14.488297069005569      21.517253528327991
  4626   7       18.19507672724972      2.1529812676857092      14.430375990639764
  4627   7      21.865677583326818      13.304450299337864      20.664252477766439
  4628   7      21.523300708613981     0.96900128908793992      15.283320394967241
  4629   7      20.976773521087445        11.0012800738469      14.081104486164886
  4630   7      22.412195247297905      23.336563070350582      21.866552051633356
  4631   7      18.236807928845135      10.651219754905377       15.24230170613929
  4632   7      25.152235114892445      22.986488647505848      20.705402141704557
  4633   7       20.01960841848118      13.402857050724887      16.335859930164535
  4634   7      23.369439207159136      1.0676852168416315      19.611740020404962
  4635   7      22.927232898677467      13.331449132437665      23.702037913897833
  4636   7      20.461752165372442     0.99604205786422961      12.245563818666787
  4637   7      21.286657974495895       9.815496171861577      14.163105930650955
  4638   7      22.102280747078879      22.150782265878178      21.784569374064525
  4639   7      24.363014085447134      10.867037030790081      12.602484972374658
  4640   7      19.026033411514266      23.202371415788946      23.345159430586456
  4641   7      22.331877813783951      18.156999477657415      18.216007068571187
  4642   7      21.057126155126095      5.8215541399380868      17.731601981231165
  4643   7      25.399466001079219      6.3582007056249745      23.851537475080114
  4644   7      17.989535424087233      18.693641526122807      12.095881127729662
  4645   7      22.867450270150467      14.842020273828654      14.956170233455119
  4646   7      20.521689324492417      2.5066847657604869      20.991566511000407
  4647   7      25.227980908602156      13.267122967704655      21.663161822793462
  4648   7      18.161062572290287     0.93182081450294574      14.284341164656412
  4649   7      19.086303801249901      14.264539117898844      19.902284184560244
  4650   7      24.302750495617971      1.9292377258491977      16.045303562402015
  4651   7      20.818699062468877        10.7052871596632      18.452610111326088
  4652   7      22.570282502908849      23.040674487152344       17.49501804496964
  4653   7      24.067074607051843      9.9550253250306202      20.418872983690754
  4654   7      19.321963863453618      22.290468941445098      15.528645401025967
  4655   7      17.755771093615881       8.664093744546653      18.683704710699807
  4656   7      25.633388499707319      20.999519448793151      17.263961631828849
  4657   7      19.757728774212438      14.471620892865651      15.798966218786447
  4658   7      23.631313431225916       2.136433640997685       20.14868261463613
  4659   7      19.474046766255487      14.526416055578384      22.966693869623064
  4660   7      23.915001539752833      2.1908822827917587      12.980918984777961
  4661   7      23.885236504593003      8.8034435274004768      20.363254940667552
  4662   7      19.503565301290298       21.13884920225096      15.584135467166712
  4663   7      21.608972220099105      8.6986462643125648      14.257563407564053
  4664   7      21.779908174780374      21.033935718778046      21.690241399890539
  4665   7      18.562037839747589       8.276773526522561      15.308677096691145
  4666   7      24.826718719397057      20.612074446693079      20.638927529158831
  4667   7      21.723439303817074      8.8077905800621306      22.827036537431034
  4668   7      21.665579441373605      21.143118731309155      13.120917420181994
  4669   7      24.535753095100574      10.631318332312736      23.515684637040501
  4670   7      18.853080281000832      22.966644813952627      12.431863142250853
  4671   7      19.505479850857967      15.493089594794053      15.290680705362766
  4672   7      23.883402701927622      3.1579934161640537      20.656885720867081
  4673   7      23.544614459592424      9.1179663605680954      16.994884992292302
  4674   7      19.844637813411758       21.45347845793555      18.952703810450174
  4675   7      25.092120818918701      13.952765402604754      18.574537681202195
  4676   7      18.296987146415148      1.6176721298636991        17.3731565706635
  4677   7       22.66895565816337       15.69913304646095      23.424848558998754
  4678   7      20.719953751243985      3.3637303985863918      12.522726310135223
  4679   7      18.763042387530589      10.325097827024711      12.046100214941044
  4680   7      24.625863576908571      22.660459429514752      23.901444034754128
  4681   7      19.159831207213301      15.418689149823509       19.74801079963191
  4682   7      24.229249750374223      3.0833985196456464      16.199576797268037
  4683   7       25.17178918380386      15.647829611117414      21.395477927003128
  4684   7      18.217404136605147      3.3124920147488122      14.552317732154293
  4685   6      18.152904821312617      5.8150428675917114      12.394696497034056
  4686   6      25.236079520648168      18.150454015611285       23.55278787368615
  4687   1      18.001456005065243      5.6399526307660475      13.462480462340826
  4688   1      25.387507936113938      17.975536363510006      22.484982075123433
  4689   1      18.053157935177488      4.8357113680166695      23.915263737545921
  4690   1      25.335889526348936      17.171090373507273      12.032178402557193
  4691   7      25.851309932204423      14.924145619885667      12.788365144285889
  4692   7      17.537681977692294      2.5888029606127909      23.159385877251811
  4693   6      19.810956661371314      18.153983553595697      17.746462775778063
  4694   6      23.578090940911714      5.8183819435834137      18.200724145929936
  4695   1      19.843168994374906      19.124367640758543      17.242147451157667
  4696   1      23.545940837629949      6.7889229600046068      18.704767636231036
  4697   1      19.472416592717998      18.303510346116948      18.775981007790325
  4698   1      23.916450847956135       5.967529421853734      17.171090697166509
  4699   1      19.058226309097549      17.538668317765808      17.240020276512169
  4700   1      24.330883072625291      5.2031597325811685       18.70719774025472
  4701   6      19.350094689778281      6.7151767810766572      12.151070280382134
  4702   6      24.038951335112344      19.050578640822796      23.796471264151691
  4703   1       19.40730517052528      6.7351531075357585      23.083003613986985
  4704   1       23.98185193906372      19.070746603839126       12.86454468871794
  4705   1      20.189730592520455      6.3102727178595428      12.725882242858905
  4706   1      23.199214859434054      18.645640251683865      23.221855644400236
  4707   1      19.193187428322378      7.7432343489298567      12.489076556313298
  4708   1      24.195843947901771      20.078540620121981      23.458244672431704
  4709   6      22.551594772102295       19.45437227539983      17.438883051664455
  4710   6      20.837492739059652      7.1189399320892699      18.508800225105578
  4711   1      21.766824236074598      20.143300760006646      17.768116615851778
  4712   1      21.622162456777684      7.8079609232857647      18.179493809978229
  4713   1      23.506765686516133      19.857318593762873       17.78710198998828
  4714   1      19.882242500138723      7.5219484554851164       18.16079961696839
  4715   6      22.129170186702488      18.564419771549655      19.668496110389363
  4716   6      21.259727280017142      6.2289683560102054      16.279132571583169
  4717   1      21.256727653080443      19.224298188080404      19.683464516382813
  4718   1      22.132017818376507      6.8890596014412413      16.264129792591529
  4719   1      22.993032661590828      19.180311846397913      19.935964491388088
  4720   1      20.395687537104415      6.8446309120011843      16.011845156066386
  4721   6      24.825793140815751      17.718138192209455      18.697365961158443
  4722   6      18.563201904985814      5.3825524794757333      17.250229715560806
  4723   1      25.158567510768741      18.680335183538702      18.298016929261955
  4724   1      18.230109749193101      6.3444558129208621      17.649926507719169
  4725   1      25.599294073617738      16.971434948271163      18.477661584528629
  4726   1      17.789849899826191      4.6356737194129547      17.469809369230703
  4727   1       24.75815374959469      17.791979995142633      19.785790768335328
  4728   1      18.630992546452177      5.4568259864544881      16.161833650811779
  4729   7       23.00116839305138      16.004080537456389      14.860832633785314
  4730   7      20.388073298038648      3.6687617139664654      21.086914795673565
  4731   6      21.124570650062736      17.397862400019477      17.674782562367788
  4732   6      22.264437164271261      5.0623700769465421       18.27275439806683
  4733   1      21.374881696330448      17.131175715332532      16.643695599521049
  4734   1      22.014382265681466      4.7957798776339233      19.303941366142613
  4735   1      21.066690737019094      16.463753169822169      18.240237163115474
  4736   1      22.322151079709752      4.1281997947240239      17.707374257105659
  4737   6      23.535029058713182      17.224060064719488      18.070124315534947
  4738   6      19.853965386848486      4.8886307746974262      17.877503597254272
  4739   1      23.235692472446217      16.265744987158893      18.506962997393767
  4740   1      20.153270328912701      3.9303149231761152      17.440685335465698
  4741   1      23.654704779176782      17.053062575170358      16.995883629544853
  4742   1      19.734193613277263      4.7177318308176899      18.951757395642495
  4743   6      23.042071670068268       5.556360617910876      23.288983959667341
  4744   6      20.346862095948566      17.891761410826412      12.658635576776067
  4745   1      23.054148019446639       5.645754458553629      22.198517569110585
  4746   1      20.334414841852944       17.98109519054772      13.749103548539516
  4747   1      22.640929273273294      6.4850102762916633      23.706179937225947
  4748   1      20.748077400544805      18.820395212581591      12.241521933856273
  4749   1      22.343494791255072      4.7491322254926143      23.539814138188945
  4750   1      21.045390441053904      17.084408101436402       12.40800559006637
  4751   6      24.410619426585733      5.1973083707783552      23.836758769123733
  4752   6      18.978376093573466      17.532754876982008      12.110668443570122
  4753   1      24.605105202442889      4.8212416126792128      12.880412723333757
  4754   1      18.783985785806859      17.156679281488124      23.067004392570837
  4755   1        24.8707776582905      4.4052006013401419      23.241615051183132
  4756   1       18.51827819185289      16.740666680876373       12.70589061130252
  4757   6      21.963006993442114      17.406117017162575       20.63226681405142
  4758   6      21.425960911913801      5.0707377729824659      15.315373788107456
  4759   1      21.074580323311636      16.801100037498415      20.426573163469801
  4760   1      22.314575544903565      4.4659767841617386      15.520830821509293
  4761   1      21.844473925732672       17.82352770099984       21.63846617692483
  4762   1      21.544289634042261      5.4882249555360838      14.309230489955747
  4763   1      22.841143908659575      16.754176192475814      20.667456540377771
  4764   1       20.54801092790435      4.4185609150324732      15.280230025987633
  4765   6       25.55801859269377      6.9503346998357181      22.461032880459808
  4766   6      17.831037272069221      19.285907602403391      13.486334914620036
  4767   1      17.416020844803686      7.7981836939217928      22.564085861322084
  4768   1       25.97291219508848      20.133635948897048      13.383145135501017
  4769   1      24.585036606961431       7.364222361044459      22.181118348844961
  4770   1      18.804057640983441      19.699777589240455       13.76617938690509
  4771   6      17.217090365987431      5.9659451586533985      21.411798882103771
  4772   6      26.172039015776676      18.301608115739228      14.535667654093277
  4773   1      17.386984444630802      6.5320208343216413      20.486999040924619
  4774   1       26.00193735075019      18.867678304823393      15.460438408255641
  4775   1      25.303679900611158      5.1871065417890332       21.19946747654776
  4776   1       18.08557631228701      17.522893182565557      14.747964003311074
  4777   1      18.157573234580202       5.479016742932691      21.690479681515782
  4778   1      25.231707645753502      17.814412065038397      14.256993665428833
  4779   6      22.536407439587375      19.308468165456542      15.928838801924357
  4780   6      20.852915550652867      6.9729670978507681      20.018904865114944
  4781   1      21.524148200223738      19.162799760660143      15.541073428310694
  4782   1      21.865174214618548      6.8268687511523876       20.40660739627242
  4783   1      23.169872543399883      18.492597552609109      15.574845070593881
  4784   1      20.219159754299017      6.1572505770613759      20.372828998364831
  4785   1      22.915028903436927       20.24157222192941      15.497543323723274
  4786   1      20.474691851416452      7.9061572956817088      20.450413918043992
  4787   6      25.151298330358465      7.4831780534894827      12.779935477549479
  4788   6      18.237769924321178      19.818590884043406       23.16744677916622
  4789   1      25.996594694454892      8.1670183542000139      12.900730470175636
  4790   1      17.392508487890534       20.50244032524569      23.046595114800962
  4791   1      24.375348689625937        8.01643894003311      12.221659195560976
  4792   1      19.013718626718756      20.351870622300677      23.725711611174454
  4793   6      24.615068338493373      7.0164765663763999       14.12035730768223
  4794   6      18.773935766440243      19.351818979183626       21.82703406364114
  4795   1      23.655720253751415      6.5043077446424684      14.009606104463323
  4796   1      19.733286154504466      18.839664259183373      21.937795754024908
  4797   1      24.445317738177437      7.8959557828764213      14.752338917581362
  4798   1      18.943655423507284      20.231221725106185      21.194923389130523
  4799   1      25.311217648106322      6.3621898903143563      14.653738399280925
  4800   1       18.07768429389057      18.697491831544379      21.293838805009642
  4801  29      21.921965081313719      12.394428926608235      25.180752911991483
  4802  29      20.973996084652605    0.059097381277346352      34.731865718283515
  4803  29      18.863223643172251      11.702599028589946      25.669848624912575
  4804  29      24.032588118746215      24.037946778761654      34.242765954251091
  4805  29      23.236559778022798      12.236804979255503       34.03846170566684
  4806  29       19.65939061814186      24.572251954660796       25.87420025382777
  4807  29      24.606909929929177      12.131432153776396      27.093721423803874
  4808  29      18.288924375438061      24.466844203802946      32.819020250152661
  4809  29      25.740197318316056      12.127201724617089      32.131497930412948
  4810  29      17.155914149018816      24.462772656240787      27.781369572579351
  4811  29      20.121374031558833      11.999837461637133      33.098623693413593
  4812  29      22.774563071293368      24.335166850423875      26.814164785940918
  4813  29      18.491054598996016      11.952364513818241      28.935591594335058
  4814  29      24.404922500364531      24.287725517665439       30.97719763001712
  4815  29      21.605147221390869      12.596146886796117      28.526534953105749
  4816  29      21.290766596380319      0.2608024184501288      31.386041140409848
  4817   7      25.692357568277782       13.16252793543233      28.464236368513934
  4818   7      17.203701813307326     0.82726927371295789      31.448480955688837
  4819   7      25.214110800338474      13.580313017767335      29.510066478708698
  4820   7      17.681900971635692      1.2450908568329586      30.402657398674371
  4821   7      21.807554012071975      13.532462212208392      31.469989368586774
  4822   7      21.088331049545033      1.1971019363078106      28.442628477929262
  4823   7      18.425337560552467      10.625318273549707      34.875774342923251
  4824   7      24.470468933297518      22.960666758137673      25.036834295890401
  4825   7        21.4476659089371      11.166191039501644      34.381214070712986
  4826   7      21.448230906524586      23.501581460785015      25.531445866072477
  4827   7      23.576327184386628      11.147716273738691      25.644141341258095
  4828   7      19.319682120734715      23.483109577817906      34.268605525904164
  4829   7      20.048038343667599      13.185466346318274      24.868720483543623
  4830   7      22.847741642730483     0.84991903137777636         35.044030972087
  4831   7      17.494540643645895      9.8295841809892988      30.585170393076364
  4832   7      25.401478915715845      22.165030516620028      29.327476826684205
  4833   7      21.455361723411713      9.9521130351731291      34.572099595713851
  4834   7      21.440483038883698      22.287476142064598      25.340717949781364
  4835   7       22.02112250011346      13.803950557584743      30.340033778821379
  4836   7      20.874845135592395      1.4686485616657401       29.57258485936083
  4837   7      18.756417245952026      13.043522886035616      32.006030311176701
  4838   7      24.139548160655664     0.70823177535944326      27.906579803472507
  4839   7      23.969215078783517       11.17443526817164      32.444998953562468
  4840   7      18.926822768930975      23.509893419893451      27.467669015364148
  4841   7      18.170183536166711      9.4398374789000439      27.262260410182638
  4842   7      24.725598299559554      21.775123620351689       32.65046453037796
  4843   7      18.541685118740467      10.891262641246136      33.703784724174533
  4844   7       24.35421997376552      23.226616882547873      26.208829323333983
  4845   7      17.133813550940967      12.748502255849623      25.701825610312387
  4846   7      25.761953246980426     0.41318285792323733      34.210953796064771
  4847   7      23.296108226200133      10.263664093851254      28.745078376732561
  4848   7      19.599927843031303      22.599192457254837      31.167481250907461
  4849   7      19.503632485478249      13.861688726122969      35.870742921496628
  4850   7      23.392179627615267       1.526124467644816      24.041986247250936
  4851   7      17.480636825151741      11.055995507903249      30.490477617074426
  4852   7      25.415327337152995      23.391462361837807      29.422204375809205
  4853   7      20.761300708546141      10.367489897854041      31.544933267083003
  4854   7      22.134703859971903      22.702895485640489      28.367713305018647
  4855   7      25.797129586648495      13.867117020296531      25.225721672195384
  4856   7      17.098722104050633      1.5317776176260125      34.687079986881727
  4857   7      22.541666690826801      14.546224919192241       35.54076565172263
  4858   7      20.354143067632197      2.2108181570708196      24.371901959376601
  4859   7      23.314142971275395      11.472022938833959      28.523615617037816
  4860   7      19.581706527942519      23.807539056774505      31.388997704473105
  4861   7      20.361688783577829      11.058253037603986      29.287019675007151
  4862   7      22.534068785524052      23.393553517380031      30.625698710764588
  4863   7      22.522431702354929      13.622970552595124       26.99392292705889
  4864   7      20.373531007974982      1.2876342146913424      32.918826674737502
  4865   7      24.947495095261154       14.48829548922628      33.499781283801099
  4866   7       17.94851529094797      2.1529796879064196      26.412903746112868
  4867   7      21.619116147025068      13.304448719558575      32.646780233239539
  4868   7      21.276739272312231     0.96899970930864998      27.265848150440345
  4869   7      20.730212084785698      11.001278494067611       26.06363224163799
  4870   7      22.165633810996155      23.336561490571292      33.849079807106463
  4871   7      17.990246492543385      10.651218175126088      27.224829461612394
  4872   7      24.905673678590695      22.986487067726557      32.687929897177661
  4873   7       19.77304698217943      13.402855470945598      28.318387685637639
  4874   7      23.122877770857386      1.0676836370623417      31.594267775878066
  4875   7      22.680671462375717      13.331447552658377       35.68456566937094
  4876   7      20.215190729070692     0.99604047808493967      24.228091574139892
  4877   7      21.040096538194149      9.8154945920822882      26.145633686124061
  4878   7      21.855719310777129      22.150780686098887      33.767097129537632
  4879   7      24.116452649145383      10.867035451010793      24.585012727847765
  4880   7      18.779471975212516      23.202369836009655      35.327687186059563
  4881   7      22.085316377482201      18.156997897878124      30.198534824044291
  4882   7      20.810564718824345      5.8215525601587963      29.714129736704269
  4883   7      25.152904564777472       6.358199125845684      35.834065230553222
  4884   7      17.742973987785483      18.693639946343517      24.078408883202766
  4885   7      22.620888833848717      14.842018694049365      26.938697988928222
  4886   7      20.275127888190667      2.5066831859811973      32.974094266473514
  4887   7      24.981419472300406      13.267121387925366       33.64568957826657
  4888   7      17.914501135988537      0.9318192347236558      26.266868920129518
  4889   7      18.839742364948151      14.264537538119555      31.884811940033348
  4890   7      24.056189059316221      1.9292361460699079      28.027831317875119
  4891   7      20.572137626167127      10.705285579883911      30.435137866799195
  4892   7      22.323721066607099      23.040672907373054      29.477545800442748
  4893   7      23.820513170750093      9.9550237452513315      32.401400739163861
  4894   7      19.075402427151868      22.290467361665808      27.511173156499073
  4895   7       17.50920965731413      8.6640921647673643      30.666232466172914
  4896   7      25.386827063405569      20.999517869013861      29.246489387301953
  4897   7      19.511167337910688      14.471619313086363      27.781493974259554
  4898   7      23.384751994924166      2.1364320612183954       32.13121037010923
  4899   7      19.227485329953737      14.526414475799095      34.949221625096172
  4900   7      23.668440103451083      2.1908807030124691      24.963446740251069
  4901   7      23.638675068291253       8.803441947621188       32.34578269614066
  4902   7      19.257003864988548      21.138847622471669      27.566663222639818
  4903   7      21.362410783797355      8.6986446845332761      26.240091163037157
  4904   7      21.533346738478624      21.033934138998756      33.672769155363646
  4905   7      18.315476403445839      8.2767719467432723      27.291204852164249
  4906   7      24.580157283095307      20.612072866913788      32.621455284631935
  4907   7      21.476877867515324      8.8077890002828418      34.809564292904142
  4908   7      21.419018005071855      21.143117151529864        25.1034451756551
  4909   7      24.289191658798821      10.631316752533447      35.498212392513608
  4910   7      18.606518844699082      22.966643234173336      24.414390897723958
  4911   7      19.258918414556216      15.493088015014765      27.273208460835871
  4912   7      23.636841265625872      3.1579918363847641      32.639413476340181
  4913   7      23.298053023290674      9.1179647807888067      28.977412747765406
  4914   7      19.598076377110008      21.453476878156259      30.935231565923281
  4915   7      24.845559382616951      13.952763822825466      30.557065436675302
  4916   7      18.050425710113398      1.6176705500844093      29.355684326136608
  4917   7      22.422394221861619      15.699131466681662      35.407376314471861
  4918   7      20.473392314942235      3.3637288188071022      24.505254065608327
  4919   7      18.516480951228839      10.325096247245423      24.028627970414149
  4920   7      24.379302140606821      22.660457849735462      35.883971790227235
  4921   7      18.913269770911551       15.41868757004422      31.730538555105014
  4922   7      23.982688314072469      3.0833969398663568      28.182104552741144
  4923   7       24.92522774750211      15.647828031338125      33.378005682476235
  4924   7      17.970842700303397      3.3124904349695226        26.5348454876274
  4925   6      17.906343385010871      5.8150412878124209      24.377224252507162
  4926   6      24.989518084346418      18.150452435831994      35.535315629159257
  4927   1      17.754894568763493       5.639951050986757      25.445008217813932
  4928   1      25.140946499812188      17.975534783730716      34.467509830596541
  4929   1      17.806596498875738       4.835709788237379      35.897791493019028
  4930   1      25.089328090047186      17.171088793727982      24.014706158030297
  4931   7      25.604748495902673      14.924144040106379      24.770892899758994
  4932   7      17.291120541390544      2.5888013808335013      35.141913632724915
  4933   6      19.564395225069564      18.153981973816407      29.728990531251171
  4934   6      23.331529504609964      5.8183803638041232       30.18325190140304
  4935   1      19.596607558073153      19.124366060979252      29.224675206630774
  4936   1      23.299379401328199      6.7889213802253163       30.68729539170414
  4937   1      19.225855156416248      18.303508766337657      30.758508763263432
  4938   1      23.669889411654388      5.9675278420744435      29.153618452639616
  4939   1      18.811664872795799      17.538666737986517      29.222548031985276
  4940   1      24.084321636323537       5.203158152801878      30.689725495727824
  4941   6      19.103533253476535      6.7151752012973667       24.13359803585524
  4942   6      23.792389898810594      19.050577061043505      35.778999019624791
  4943   1       19.16074373422353       6.735151527756468      35.065531369460089
  4944   1       23.73529050276197      19.070745024059836      24.847072444191046
  4945   1      19.943169156218705      6.3102711380802523      24.708409998332012
  4946   1      22.952653423132304      18.645638671904575      35.204383399873343
  4947   1      18.946625992020628      7.7432327691505662      24.471604311786404
  4948   1      23.949282511600018       20.07853904034269      35.440772427904804
  4949   6      22.305033335800545       19.45437069562054      29.421410807137558
  4950   6      20.590931302757902      7.1189383523099794      30.491327980578681
  4951   1      21.520262799772848      20.143299180227356      29.750644371324885
  4952   1      21.375601020475933      7.8079593435064742      30.162021565451333
  4953   1      23.260204250214382      19.857317013983582      29.769629745461387
  4954   1      19.635681063836973      7.5219468757058259      30.143327372441497
  4955   6      21.882608750400742      18.564418191770365      31.651023865862467
  4956   6      21.013165843715392      6.2289667762309149      28.261660327056273
  4957   1      21.010166216778693      19.224296608301113      31.665992271855917
  4958   1      21.885456382074757      6.8890580216619508      28.246657548064633
  4959   1      22.746471225289078      19.180310266618623      31.918492246861192
  4960   1      20.149126100802665      6.8446293322218938      27.994372911539489
  4961   6      24.579231704514001      17.718136612430165      30.679893716631547
  4962   6      18.316640468684064      5.3825508996964428      29.232757471033914
  4963   1      24.912006074466994      18.680333603759411      30.280544684735059
  4964   1      17.983548312891351      6.3444542331415716      29.632454263192272
  4965   1      25.352732637315988      16.971433368491873      30.460189340001737
  4966   1      17.543288463524441      4.6356721396336642      29.452337124703806
  4967   1       24.51159231329294      17.791978415363342      31.768318523808432
  4968   1      18.384431110150427      5.4568244066751976      28.144361406284887
  4969   7       22.75460695674963      16.004078957677098      26.843360389258422
  4970   7      20.141511861736898      3.6687601341871758      33.069442551146672
  4971   6      20.878009213760986      17.397860820240187      29.657310317840896
  4972   6      22.017875727969511      5.0623684971672516      30.255282153539934
  4973   1      21.128320260028698      17.131174135553241      28.626223354994156
  4974   1      21.767820829379716      4.7957782978546328      31.286469121615717
  4975   1      20.820129300717344      16.463751590042879      30.222764918588581
  4976   1      22.075589643408001      4.1281982149447334      29.689902012578766
  4977   6      23.288467622411432      17.224058484940198      30.052652071008055
  4978   6      19.607403950546736      4.8886291949181357      29.860031352727379
  4979   1      22.989131036144464      16.265743407379603      30.489490752866875
  4980   1      19.906708892610951      3.9303133433968256      29.423213090938802
  4981   1      23.408143342875036      17.053060995391068       28.97841138501796
  4982   1      19.487632176975513      4.7177302510383994      30.934285151115603
  4983   6      22.795510233766517      5.5563590381315855      35.271511715140448
  4984   6      20.100300659646816      17.891759831047121      24.641163332249171
  4985   1      22.807586583144889      5.6457528787743385      34.181045324583692
  4986   1      20.087853405551193      17.981093610768429      25.731631304012623
  4987   1      22.394367836971544      6.4850086965123728      35.688707692699055
  4988   1      20.501515964243055        18.8203936328023      24.224049689329377
  4989   1      22.096933354953322      4.7491306457133238      35.522341893662052
  4990   1      20.798829004752154      17.084406521657112      24.390533345539474
  4991   6      24.164057990283986      5.1973067909990647      35.819286524596841
  4992   6      18.731814657271716      17.532753297202717      24.093196199043227
  4993   1      24.358543766141139      4.8212400328999223      24.862940478806863
  4994   1      18.537424349505109      17.156677701708833      35.049532148043937
  4995   1       24.62421622198875      4.4051990215608514      35.224142806656232
  4996   1      18.271716755551139      16.740665101097083      24.688418366775625
  4997   6      21.716445557140364      17.406115437383285       32.61479456952452
  4998   6      21.179399475612051      5.0707361932031754      27.297901543580561
  4999   1      20.828018887009886      16.801098457719124      32.409100918942904
  5000   1      22.068014108601815      4.4659752043824481        27.5033585769824
  5001   1      21.597912489430918      17.823526121220549      33.620993932397937
  5002   1      21.297728197740511      5.4882233757567933      26.291758245428852
  5003   1      22.594582472357825      16.754174612696524      32.649984295850878
  5004   1        20.3014494916026      4.4185593352531827      27.262757781460738
  5005   6      25.311457156392017      6.9503331200564276      34.443560635932911
  5006   6      17.584475835767471      19.285906022624101      25.468862670093142
  5007   1      17.169459408501936      7.7981821141425023      34.546613616795192
  5008   1       25.72635075878673      20.133634369117758      25.365672890974121
  5009   1      24.338475170659681      7.3642207812651685      34.163646104318062
  5010   1      18.557496204681691      19.699776009461164      25.748707142378194
  5011   6      16.970528929685681       5.965943578874108      33.394326637576874
  5012   6      25.925477579474926      18.301606535959937      26.518195409566385
  5013   1      17.140423008329051      6.5320192545423508      32.469526796397723
  5014   1      25.755375914448436      18.867676725044102      27.442966163728745
  5015   1      25.057118464309408      5.1871049620097427      33.181995232020867
  5016   1       17.83901487598526      17.522891602786267      26.730491758784179
  5017   1      17.911011798278452      5.4790151631534005       33.67300743698889
  5018   1      24.985146209451752      17.814410485259106      26.239521420901941
  5019   6      22.289846003285625      19.308466585677252      27.911366557397464
  5020   6      20.606354114351117      6.9729655180714776      32.001432620588048
  5021   1      21.277586763921988      19.162798180880852        27.5236011837838
  5022   1      21.618612778316798      6.8268671713730971      32.389135151745521
  5023   1      22.923311107098133      18.492595972829818      27.557372826066985
  5024   1      19.972598317997267      6.1572489972820854      32.355356753837938
  5025   1      22.668467467135176      20.241570642150119      27.480071079196378
  5026   1      20.228130415114705      7.9061557159024183      32.432941673517099
  5027   6      24.904736894056715      7.4831764737101922      24.762463233022583
  5028   6      17.991208488019428      19.818589304264115      35.149974534639327
  5029   1      25.750033258153145      8.1670167744207252      24.883258225648742
  5030   1      17.145947051588784      20.502438745466399      35.029122870274065
  5031   1      24.128787253324187      8.0164373602538213      24.204186951034082
  5032   1      18.767157190417006      20.351869042521386      35.708239366647561
  5033   6      24.368506902191626      7.0164749865971094      26.102885063155334
  5034   6      18.527374330138493      19.351817399404336      33.809561819114244
  5035   1      23.409158817449665      6.5043061648631779      25.992133859936427
  5036   1      19.486724718202716      18.839662679404082      33.920323509498012
  5037   1      24.198756301875687      7.8959542030971308      26.734866673054466
  5038   1      18.697093987205534      20.231220145326894       33.17745114460363
  5039   1      25.064656211804571      6.3621883105350658      26.636266154754029
  5040   1       17.83112285758882      18.697490251765089      33.276366560482742
  5041  29       22.41508633255021      37.065201425469574      1.2156974010452735
  5042  29      21.467117335889096      24.729869880138683      10.766810207337304
  5043  29      19.356344894408743      36.373371527451283      1.7047931139663628
  5044  29      24.525709369982707       48.70871927762299      10.277710443304878
  5045  29      23.729681029259289      36.907577478116842      10.073406194720627
  5046  29      20.152511869378351      49.243024453522139      1.9091447428815596
  5047  29      25.100031181165669      36.802204652637734       3.128665912857663
  5048  29      18.782045626674552      49.137616702664289      8.8539647392064484
  5049  29      26.233318569552551      36.797974223478427      8.1664424194667404
  5050  29      17.649035400255308      49.133545155102127      3.8163140616331384
  5051  29      20.614495282795325      36.670609960498467      9.1335681824673802
  5052  29       23.26768432252986      49.005939349285214      2.8491092749947078
  5053  29      18.984175850232507      36.623137012679578       4.970536083388847
  5054  29      24.898043751601023      48.958498016526775      7.0121421190709086
  5055  29       22.09826847262736      37.266919385657452      4.5614794421595377
  5056  29      21.783887847616811      24.931574917311465      7.4209856294636376
  5057   7      26.185478819514273      37.833300434293669      4.4991808575677226
  5058   7      17.696823064543818      25.498041772574297      7.4834254447426245
  5059   7      25.707232051574962       38.25108551662867      5.5450109677624866
  5060   7      18.175022222872183      25.915863355694295      6.4376018877281602
  5061   7      22.300675263308463      38.203234711069726      7.5049338576405642
  5062   7      21.581452300781525      25.867874435169149      4.4775729669830495
  5063   7      18.918458811788959      35.296090772411048      10.910718831977039
  5064   7      24.963590184534009      47.631439256999016      1.0717787849441902
  5065   7      21.940787160173592       35.83696353836298      10.416158559766773
  5066   7      21.941352157761074      48.172353959646358       1.566390355126267
  5067   7      24.069448435623119      35.818488772600027       1.679085830311885
  5068   7      19.812803371971206      48.153882076679245      10.303550014957949
  5069   7      20.541159594904091      37.856238845179611     0.90366497259741219
  5070   7      23.340862893966975      25.520691530239116      11.078975461140789
  5071   7      17.987661894882386       34.50035667985064      6.6201148821301521
  5072   7      25.894600166952337      46.835803015481368      5.3624213157379943
  5073   7      21.948482974648201      34.622885534034467      10.607044084767642
  5074   7      21.933604290120194      46.958248640925937      1.3756624388351535
  5075   7      22.514243751349952      38.474723056446081       6.374978267875167
  5076   7      21.367966386828886      26.139421060527077      5.6075293484146211
  5077   7      19.249538497188517      37.714295384896957      8.0409748002304884
  5078   7      24.632669411892156      25.379004274220783      3.9415242925262959
  5079   7      24.462336330020008      35.845207767032974      8.4799434426162552
  5080   7      19.419944020167463      48.180665918754791      3.5026135044179361
  5081   7      18.663304787403202      34.110609977761385      3.2972048992364256
  5082   7      25.218719550796045      46.445896119213032      8.6854090194317504
  5083   7      19.034806369976963      35.562035140107476      9.7387292132283196
  5084   7      24.847341225002012      47.897389381409212      2.2437738123877731
  5085   7      17.626934802177459      37.419274754710962      1.7367700993661772
  5086   7      26.255074498216921      25.083955356784575      10.245898285118564
  5087   7      23.789229477436621      34.934436592712593      4.7800228657863491
  5088   7      20.093049094267794      47.269964956116176      7.2024257399612486
  5089   7      19.996753736714741      38.532461224984303      11.905687410550415
  5090   7      23.885300878851758      26.196896966506152    0.076930736304725078
  5091   7      17.973758076388233      35.726768006764587      6.5254221061282127
  5092   7       25.90844858838949      48.062234860699149      5.4571488648629929
  5093   7      21.254421959782633      35.038262396715382      7.5798777561367912
  5094   7      22.627825111208395      47.373667984501829      4.4026577940724367
  5095   7      26.290250837884987      38.537889519157872      1.2606661612491736
  5096   7      17.591843355287125      26.202550116487352       10.72202447593552
  5097   7      23.034787942063289       39.21699741805358      11.575710140776419
  5098   7      20.847264318868689      26.881590655932158     0.40684644843038786
  5099   7      23.807264222511883      36.142795437695298      4.5585601060916048
  5100   7       20.07482777917901      48.478311555635841      7.4239421935268934
  5101   7      20.854810034814321      35.729025536465322      5.3219641640609412
  5102   7      23.027190036760544      48.064326016241367      6.6606431998183764
  5103   7      23.015552953591421       38.29374305145646      3.0288674161126767
  5104   7      20.866652259211474       25.95840671355268      8.9537711637912931
  5105   7      25.440616346497645      39.159067988087614      9.5347257728548875
  5106   7      18.441636542184462      26.823752186767756      2.4478482351666573
  5107   7      22.112237398261559      37.975221218419911      8.6817247222933318
  5108   7      21.769860523548722      25.639772208169987      3.3007926394941349
  5109   7      21.223333336022186      35.672050992928945      2.0985767306917804
  5110   7      22.658755062232647      48.007333989432631      9.8840242961602485
  5111   7      18.483367743779876      35.321990673987429       3.259773950666184
  5112   7      25.398794929827186      47.657259566587896      8.7228743862314513
  5113   7      20.266168233415922      38.073627969806935      4.3533321746914284
  5114   7      23.615999022093877      25.738456135923681      7.6292122649318568
  5115   7      23.173792713612208      38.002220051519714      11.719510158424725
  5116   7      20.708311980307183      25.666812976946279     0.26303606319368061
  5117   7      21.533217789430637      34.486267090943628      2.1805781751778497
  5118   7      22.348840562013621      46.821553184960223       9.802041618591419
  5119   7      24.609573900381875      35.537807949872132     0.61995721690155225
  5120   7      19.272593226449008      47.873142334870991      11.362631675113349
  5121   7      22.578437628718692      42.827770396739467      6.2334793130980799
  5122   7      21.303685970060837      30.492325059020136      5.7490742257580587
  5123   7       25.64602581601396      31.028971624707022      11.869009719607009
  5124   7      18.236095239021974      43.364412445204856     0.11335337225655616
  5125   7      23.114010085085209      39.512791192910704      2.9736424779820125
  5126   7      20.768249139427159      27.177455684842535      9.0090387555273015
  5127   7      25.474540723536897      37.937893886786703      9.6806340673203568
  5128   7      18.407622387225029      25.602591733584994      2.3018134091833065
  5129   7      19.332863616184643      38.935310036980894      7.9197564290871378
  5130   7      24.549310310552713      26.600008644931247      4.0627758069289097
  5131   7      21.065258877403618      35.376058078745245      6.4700823558529832
  5132   7      22.816842317843591       47.71144540623439      5.5124902894965349
  5133   7      24.313634421986585      34.625796244112671      8.4363452282176503
  5134   7       19.56852367838836      46.961239860527144       3.546117645552862
  5135   7      18.002330908550622        33.3348646636287      6.7011769552267015
  5136   7      25.879948314642061      45.670290367875197      5.2814338763557416
  5137   7       20.00428858914718      39.142391811947704      3.8164384633133417
  5138   7      23.877873246160657      26.807204560079732      8.1661548591630222
  5139   7      19.720606581190228      39.197186974660433      10.984166114149959
  5140   7      24.161561354687574      26.861653201873807     0.99839122930485635
  5141   7      24.131796319527744      33.474214446482527      8.3807271851944467
  5142   7      19.750125116225039      45.809620121333012      3.6016077116936072
  5143   7      21.855532035033846      33.369417183394617      2.2750356520909465
  5144   7      22.026467989715115      45.704706637860099       9.707713644417435
  5145   7       18.80859765468233      32.947544445604606      3.3261493412180396
  5146   7      25.073278534331799      45.282845365775131      8.6563997736857257
  5147   7      21.969999118751815      33.478561499144178      10.844508781957927
  5148   7      21.912139256308347      45.813889650391204      1.1383896647088887
  5149   7      24.782312910035316      35.302089251394783      11.533156881567393
  5150   7      19.099640095935573      47.637415733034672     0.44933538677774715
  5151   7      19.752039665792708      40.163860513876102        3.30815294988966
  5152   7      24.129962516862363      27.828764335246102      8.6743579653939733
  5153   7      23.791174274527165      33.788737279650142      5.0123572368191969
  5154   7      20.091197628346499      46.124249377017598      6.9701760549770704
  5155   7      25.338680633853443        38.6235363216868      6.5920099257290907
  5156   7       18.54354696134989      26.288443048945748      5.3906288151903956
  5157   7      22.915515473098111      40.369903965543003      11.442320803525647
  5158   7      20.966513566178726       28.03450131766844     0.54019855466211697
  5159   7      19.009602202465331      34.995868746106758    0.063572459467938755
  5160   7      24.872423391843313      47.331230348596804      11.918916279281023
  5161   7      19.406391022148043      40.089460068905559      7.7654830441588034
  5162   7      24.475809565308964      27.754169438727693      4.2170490417949322
  5163   7      25.418348998738601      40.318600530199461      9.4129501715300243
  5164   7      18.463963951539888      27.983262933830861      2.5697899766811876
  5165   6      18.399464636247359      30.485813786673759     0.41216874156095079
  5166   6       25.48263933558291      42.821224934693333      11.570260118213042
  5167   1      18.248015819999985      30.310723549848095      1.4799527068677203
  5168   1      25.634067751048679      42.646307282592055      10.502454319650329
  5169   1      18.299717750112229      29.506482287098716      11.932735982072813
  5170   1      25.582449341283677      41.841861292589321    0.049650647084087035
  5171   7      26.097869747139164      39.594916538967716     0.80583738881278266
  5172   7      17.784241792627036      27.259573879694841      11.176858121778706
  5173   6      20.057516476306056      42.824754472677746      5.7639350203049595
  5174   6      23.824650755846456      30.489152862665463      6.2181963904568294
  5175   1      20.089728809309648      43.795138559840595      5.2596196956845622
  5176   1      23.792500652564691      31.459693879086654      6.7222398807579298
  5177   1       19.71897640765274      42.974281265198996        6.79345325231722
  5178   1      24.163010662890876      30.638300340935782      5.1885629416934043
  5179   1       19.30478612403229      42.209439236847857      5.2574925210390653
  5180   1      24.577442887560032      29.873930651663215       6.724669984781614
  5181   6      19.596654504713023      31.385947700158706     0.16854252490902921
  5182   6      24.285511150047085      43.721349559904844      11.813943508678584
  5183   1      19.653864985460022      31.405924026617807       11.10047585851388
  5184   1      24.228411753998461      43.741517522921171      0.8820169332448351
  5185   1      20.436290407455196      30.981043636941592     0.74335448738580023
  5186   1      23.445774674368796      43.316411170765917       11.23932788892713
  5187   1       19.43974724325712      32.414005268011906     0.50654880084019216
  5188   1      24.442403762836513      44.749311539204029      11.475716916958596
  5189   6      22.798154587037036      44.125143194481879      5.4563552961913473
  5190   6      21.084052553994393      31.789710851171318      6.5262724696324712
  5191   1      22.013384051009339      44.814071679088698      5.7855888603786729
  5192   1      21.868722271712425      32.478731842367814      6.1969660545051228
  5193   1      23.753325501450874      44.528089512844922      5.8045742345151758
  5194   1      20.128802315073465      32.192719374567162      6.1782718614952854
  5195   6       22.37573000163723      43.235190690631704      7.6859683549162563
  5196   6      21.506287094951883      30.899739275092251      4.2966048161100616
  5197   1      21.503287468015184      43.895069107162456      7.7009367609097064
  5198   1      22.378577633311249      31.559830520523288      4.2816020371184234
  5199   1      23.239592476525569      43.851082765479958      7.9534367359149813
  5200   1      20.642247352039156      31.515401831083231      4.0293174005932784
  5201   6      25.072352955750492      42.388909111291504      6.7148382056853375
  5202   6      18.809761719920555      30.053323398557779      5.2677019600877015
  5203   1      25.405127325703482      43.351106102620747      6.3154891737888477
  5204   1      18.476669564127842      31.015226732002908      5.6673987522460632
  5205   1       25.84585388855248      41.642205867353212      6.4951338290555247
  5206   1      18.036409714760932      29.306444638495002      5.4872816137575953
  5207   1      25.004713564529432      42.462750914224685      7.8032630128622218
  5208   1      18.877552361386918      30.127596905536535      4.1793058953386746
  5209   7      23.247728207986121      40.674851456538434      2.8783048783122096
  5210   7       20.63463311297339      28.339532633048513      9.1043870402004607
  5211   6      21.371130464997478      42.068633319101522      5.6922548068946845
  5212   6      22.510996979206002      29.733140996028588      6.2902266425937228
  5213   1      21.621441511265189      41.801946634414577      4.6611678440479443
  5214   1      22.260942080616207      29.466550796715971      7.3214136106695067
  5215   1      21.313250551953836      41.134524088904215       6.257709407642368
  5216   1      22.568710894644493      28.798970713806071      5.7248465016325545
  5217   6      23.781588873647923       41.89483098380154      6.0875965600618427
  5218   6      20.100525201783228      29.559401693779474      5.8949758417811671
  5219   1      23.482252287380959      40.936515906240942      6.5244352419206626
  5220   1      20.399830143847442      28.601085842258165      5.4581575799925917
  5221   1      23.901264594111524      41.723833494252403      5.0133558740717481
  5222   1      19.980753428212005      29.388502749899736      6.9692296401693898
  5223   6      23.288631485003009      30.227131536992925      11.306456204194236
  5224   6      20.593421910883308      42.562532329908464     0.67610782130296165
  5225   1      23.300707834381381      30.316525377635678       10.21598981363748
  5226   1      20.580974656787685      42.651866109629765      1.7665757930664105
  5227   1      22.887489088208035      31.155781195373713      11.723652181752843
  5228   1      20.994637215479546       43.49116613166364     0.25899417838316663
  5229   1      22.590054606189813      29.419903144574661      11.557286382715841
  5230   1      21.291950255988645      41.755179020518455     0.42547783459326416
  5231   6      24.657179241520474      29.868079289860404      11.854231013650629
  5232   6      19.224935908508208      42.203525796064056      0.1281406880970157
  5233   1      24.851665017377631      29.492012531761262     0.89788496786065197
  5234   1      19.030545600741601      41.827450200570169       11.08447663709773
  5235   1      25.117337473225241       29.07597152042219      11.259087295710025
  5236   1      18.764838006787631      41.411437599958418     0.72336285582941362
  5237   6      22.209566808376856      42.076887936244624      8.6497390585783123
  5238   6      21.672520726848543      29.741508692064514      3.3328460326343503
  5239   1      21.321140138246378       41.47187095658046      8.4440454079966951
  5240   1      22.561135359838307      29.136747703243785      3.5383030660361872
  5241   1      22.091033740667413      42.494298620081892      9.6559384214517223
  5242   1      21.790849448977003      30.158995874618132      2.3267027344826414
  5243   1      23.087703723594316      41.424947111557863       8.684928784904665
  5244   1      20.794570742839092      29.089331834114521      3.2977022705145274
  5245   6      25.804578407628512      31.621105618917767      10.478505124986702
  5246   6      18.077597087003962      43.956678521485443      1.5038071591469302
  5247   1      17.662580659738428      32.468954613003838      10.581558105848979
  5248   1      26.219472010023221      44.804406867979097      1.4006173800279111
  5249   1      24.831596421896172      32.034993280126507      10.198590593371854
  5250   1      19.050617455918182        44.3705485083225      1.7836516314319844
  5251   6      17.463650180922173      30.636716077735446       9.429271126630665
  5252   6      26.418598830711417      42.972379034821273      2.5531398986201723
  5253   1      17.633544259565543      31.202791753403687      8.5044712854515137
  5254   1      26.248497165684931      43.538449223905445      3.4779106527825343
  5255   1      25.550239715545899       29.85787746087108      9.2169397210746542
  5256   1      18.332136127221752      42.193664101647606      2.7654362478379682
  5257   1      18.404133049514943      30.149787662014738      9.7079519260426785
  5258   1      25.478267460688244      42.485182984120442      2.2744659099557287
  5259   6      22.782967254522116      43.979239084538591      3.9463110464512514
  5260   6      21.099475365587608      31.643738016932815      8.0363771096418386
  5261   1       21.77070801515848      43.833570679742195      3.5585456728375893
  5262   1       22.11173402955329      31.497639670234435       8.424079640799313
  5263   1      23.416432358334625      43.163368471691157      3.5923173151207748
  5264   1      20.465719569233759      30.828021496143425      8.3903012428917254
  5265   1      23.161588718371668      44.912343141011462      3.5150155682501687
  5266   1      20.721251666351193      32.576928214763754      8.4678861625708883
  5267   6      25.397858145293206      32.153948972571527     0.79740772207637278
  5268   6      18.484329739255919      44.489361803125455      11.184919023693116
  5269   1      26.243154509389633      32.837789273282063     0.91820271470253068
  5270   1      17.639068302825276      45.173211244327739      11.064067359327856
  5271   1      24.621908504560679      32.687209859115157     0.23913144008786985
  5272   1      19.260278441653497      45.022641541382725      11.743183855701348
  5273   6      24.861628153428114       31.68724748545845      2.1378295522091237
  5274   6      19.020495581374984      44.022589898265679      9.8445063081680342
  5275   1      23.902280068686157      31.175078663724516      2.0270783489902171
  5276   1      19.979845969439207      43.510435178265425      9.9552679985518022
  5277   1      24.691877553112178      32.566726701958473       2.769811162108256
  5278   1      19.190215238442025      44.901992644188233      9.2123956336574171
  5279   1      25.557777463041063      31.032960809396403      2.6712106438078189
  5280   1      18.324244108825312      43.368262750626428      9.3113110495365348
  5281  29       22.16852489624846       37.06519984569028      13.198225156518379
  5282  29      21.220555899587346      24.729868300359392      22.749337962810408
  5283  29      19.109783458106993      36.373369947671989      13.687320869439468
  5284  29      24.279147933680957      48.708717697843703      22.260238198777984
  5285  29      23.483119592957539      36.907575898337548      22.055933950193733
  5286  29      19.905950433076601      49.243022873742845      13.891672498354666
  5287  29      24.853469744863919      36.802203072858447      15.111193668330769
  5288  29      18.535484190372802      49.137615122884995      20.836492494679554
  5289  29      25.986757133250798       36.79797264369914      20.148970174939848
  5290  29      17.402473963953558      49.133543575322832      15.798841817106243
  5291  29      20.367933846493575       36.67060838071918      21.116095937940486
  5292  29       23.02112288622811       49.00593776950592      14.831637030467814
  5293  29      18.737614413930757      36.623135432900284      16.953063838861951
  5294  29      24.651482315299273      48.958496436747488      18.994669874544016
  5295  29       21.85170703632561      37.266917805878165      16.544007197632645
  5296  29       21.53732641131506      24.931573337532175      19.403513384936744
  5297   7      25.938917383212523      37.833298854514375       16.48170861304083
  5298   7      17.450261628242068      25.498040192795006      19.465953200215729
  5299   7      25.460670615273216      38.251083936849383      17.527538723235594
  5300   7      17.928460786570433      25.915861775915005      18.420129643201264
  5301   7      22.054113827006717      38.203233131290439       19.48746161311367
  5302   7      21.334890864479775      25.867872855389859      16.460100722456154
  5303   7      18.671897375487209      35.296089192631754      22.893246587450143
  5304   7      24.717028748232259      47.631437677219722      13.054306540417295
  5305   7      21.694225723871842      35.836961958583693      22.398686315239878
  5306   7      21.694790721459327      48.172352379867064      13.548918110599372
  5307   7      23.822886999321369       35.81848719282074      13.661613585784991
  5308   7      19.566241935669456      48.153880496899959      22.286077770431056
  5309   7      20.294598158602341      37.856237265400324      12.886192728070517
  5310   7      23.094301457665225      25.520689950459825      23.061503216613893
  5311   7      17.741100458580636      34.500355100071346      18.602642637603257
  5312   7      25.648038730650587      46.835801435702081      17.344949071211101
  5313   7      21.701921538346454      34.622883954255173      22.589571840240747
  5314   7       21.68704285381844       46.95824706114665      13.358190194308259
  5315   7      22.267682315048202      38.474721476666787      18.357506023348272
  5316   7      21.121404950527136      26.139419480747787      17.590057103887727
  5317   7      19.002977060886767      37.714293805117663      20.023502555703594
  5318   7      24.386107975590406      25.379002694441489      15.924052047999401
  5319   7      24.215774893718258      35.845206187253687      20.462471198089361
  5320   7      19.173382583865717      48.180664338975504      15.485141259891041
  5321   7      18.416743351101452      34.110608397982091       15.27973265470953
  5322   7      24.972158114494295      46.445894539433738      20.667936774904856
  5323   7      18.788244933675209      35.562033560328182      21.721256968701425
  5324   7      24.600779788700262      47.897387801629918       14.22630156786088
  5325   7      17.380373365875709      37.419273174931668      13.719297854839283
  5326   7      26.008513061915167      25.083953777005284      22.228426040591671
  5327   7      23.542668041134874      34.934435012933299      16.762550621259454
  5328   7      19.846487657966044      47.269963376336889      19.184953495434353
  5329   7      19.750192300412991      38.532459645205016      23.888215166023521
  5330   7      23.638739442550008      26.196895386726865       12.05945849177783
  5331   7      17.727196640086483      35.726766426985293      18.507949861601318
  5332   7      25.661887152087736      48.062233280919855      17.439676620336098
  5333   7      21.007860523480883      35.038260816936088      19.562405511609896
  5334   7      22.381263674906645      47.373666404722542      16.385185549545543
  5335   7      26.043689401583237      38.537887939378578       13.24319391672228
  5336   7      17.345281918985375      26.202548536708061      22.704552231408627
  5337   7      22.788226505761543      39.216995838274286      23.558237896249523
  5338   7      20.600702882566939      26.881589076152867      12.389374203903493
  5339   7      23.560702786210136      36.142793857916004      16.541087861564712
  5340   7       19.82826634287726      48.478309975856554      19.406469948999998
  5341   7      20.608248598512571      35.729023956686035      17.304491919534048
  5342   7      22.780628600458794       48.06432443646208      18.643170955291481
  5343   7       22.76899151728967      38.293741471677173      15.011395171585782
  5344   7      20.620090822909724       25.95840513377339      20.936298919264399
  5345   7      25.194054910195895      39.159066408308327      21.517253528327991
  5346   7      18.195075105882712      26.823750606988469      14.430375990639764
  5347   7      21.865675961959809      37.975219638640624      20.664252477766439
  5348   7      21.523299087246972      25.639770628390696      15.283320394967241
  5349   7       20.97677189972044      35.672049413149658      14.081104486164886
  5350   7      22.412193625930897      48.007332409653344      21.866552051633356
  5351   7      18.236806307478126      35.321989094208135       15.24230170613929
  5352   7      25.152233493525436      47.657257986808602      20.705402141704557
  5353   7      20.019606797114172      38.073626390027641      16.335859930164535
  5354   7      23.369437585792127       25.73845455614439      19.611740020404962
  5355   7      22.927231277310458       38.00221847174042      23.702037913897833
  5356   7      20.461750544005433      25.666811397166988      12.245563818666787
  5357   7       21.28665635312889      34.486265511164333      14.163105930650955
  5358   7       22.10227912571187      46.821551605180936      21.784569374064525
  5359   7      24.363012464080125      35.537806370092838      12.602484972374658
  5360   7      19.026031790147258      47.873140755091704      23.345159430586456
  5361   7      22.331876192416942      42.827768816960173      18.216007068571187
  5362   7      21.057124533759087      30.492323479240845      17.731601981231165
  5363   7      25.399464379712214      31.028970044927732      23.851537475080114
  5364   7      17.989533802720224      43.364410865425569      12.095881127729662
  5365   7      22.867448648783459       39.51278961313141      14.956170233455119
  5366   7      20.521687703125409      27.177454105063244      20.991566511000407
  5367   7      25.227979287235147      37.937892307007417      21.663161822793462
  5368   7      18.161060950923279      25.602590153805703      14.284341164656412
  5369   7      19.086302179882892        38.9353084572016      19.902284184560244
  5370   7      24.302748874250963      26.600007065151956      16.045303562402015
  5371   7      20.818697441101868      35.376056498965958      18.452610111326088
  5372   7      22.570280881541841      47.711443826455103       17.49501804496964
  5373   7      24.067072985684835      34.625794664333377      20.418872983690754
  5374   7       19.32196224208661      46.961238280747857      15.528645401025967
  5375   7      17.755769472248872      33.334863083849413      18.683704710699807
  5376   7       25.63338687834031       45.67028878809591      17.263961631828849
  5377   7       19.75772715284543       39.14239023216841      15.798966218786447
  5378   7      23.631311809858907      26.807202980300442       20.14868261463613
  5379   7      19.474045144888478      39.197185394881146      22.966693869623064
  5380   7      23.914999918385824      26.861651622094517      12.980918984777961
  5381   7      23.885234883225994      33.474212866703233      20.363254940667552
  5382   7      19.503563679923289      45.809618541553718      15.584135467166712
  5383   7      21.608970598732096      33.369415603615323      14.257563407564053
  5384   7      21.779906553413365      45.704705058080805      21.690241399890539
  5385   7       18.56203621838058      32.947542865825319      15.308677096691145
  5386   7      24.826717098030048      45.282843785995837      20.638927529158831
  5387   7      21.723437682450065      33.478559919364891      22.827036537431034
  5388   7      21.665577820006597       45.81388807061191      13.120917420181994
  5389   7      24.535751473733562      35.302087671615496      23.515684637040501
  5390   7      18.853078659633823      47.637414153255385      12.431863142250853
  5391   7      19.505478229490958      40.163858934096808      15.290680705362766
  5392   7      23.883401080560613      27.828762755466812      20.656885720867081
  5393   7      23.544612838225415      33.788735699870855      16.994884992292302
  5394   7      19.844636192044749      46.124247797238311      18.952703810450174
  5395   7      25.092119197551693      38.623534741907513      18.574537681202195
  5396   7      18.296985525048139      26.288441469166457        17.3731565706635
  5397   7      22.668954036796361      40.369902385763709      23.424848558998754
  5398   7      20.719952129876976      28.034499737889149      12.522726310135223
  5399   7      18.763040766163581      34.995867166327471      12.046100214941044
  5400   7      24.625861955541563       47.33122876881751      23.901444034754128
  5401   7      19.159829585846293      40.089458489126265       19.74801079963191
  5402   7       24.22924812900721      27.754167858948403      16.199576797268037
  5403   7      25.171787562436851      40.318598950420174      21.395477927003128
  5404   7      18.217402515238138      27.983261354051571      14.552317732154293
  5405   6      18.152903199945612      30.485812206894469      12.394696497034056
  5406   6       25.23607789928116      42.821223354914039       23.55278787368615
  5407   1      18.001454383698235      30.310721970068805      13.462480462340826
  5408   1      25.387506314746929      42.646305702812768      22.484982075123433
  5409   1      18.053156313810479      29.506480707319426      23.915263737545921
  5410   1      25.335887904981927      41.841859712810034      12.032178402557193
  5411   7      25.851308310837414      39.594914959188429      12.788365144285889
  5412   7      17.537680356325286      27.259572299915547      23.159385877251811
  5413   6      19.810955040004306      42.824752892898459      17.746462775778063
  5414   6      23.578089319544706      30.489151282886169      18.200724145929936
  5415   1      19.843167373007894      43.795136980061301      17.242147451157667
  5416   1      23.545939216262941      31.459692299307363      18.704767636231036
  5417   1       19.47241497135099      42.974279685419702      18.775981007790325
  5418   1       23.91644922658913      30.638298761156491      17.171090697166509
  5419   1       19.05822468773054      42.209437657068563      17.240020276512169
  5420   1      24.330881451258279      29.873929071883925       18.70719774025472
  5421   6      19.350093068411276      31.385946120379415      12.151070280382134
  5422   6      24.038949713745335      43.721347980125557      23.796471264151691
  5423   1      19.407303549158271      31.405922446838517      23.083003613986985
  5424   1      23.981850317696711      43.741515943141884       12.86454468871794
  5425   1      20.189728971153446      30.981042057162298      12.725882242858905
  5426   1      23.199213238067045      43.316409590986623      23.221855644400236
  5427   1       19.19318580695537      32.414003688232611      12.489076556313298
  5428   1      24.195842326534759      44.749309959424735      23.458244672431704
  5429   6      22.551593150735286      44.125141614702585      17.438883051664455
  5430   6      20.837491117692643      31.789709271392027      18.508800225105578
  5431   1      21.766822614707589      44.814070099309404      17.768116615851778
  5432   1      21.622160835410675       32.47873026258852      18.179493809978229
  5433   1      23.506764065149124      44.528087933065635       17.78710198998828
  5434   1      19.882240878771714      32.192717794787875       18.16079961696839
  5435   6      22.129168565335483      43.235189110852417      19.668496110389363
  5436   6      21.259725658650133      30.899737695312965      16.279132571583169
  5437   1      21.256726031713434      43.895067527383162      19.683464516382813
  5438   1      22.132016197009499      31.559828940743998      16.264129792591529
  5439   1      22.993031040223819      43.851081185700671      19.935964491388088
  5440   1      20.395685915737406      31.515400251303941      16.011845156066386
  5441   6      24.825791519448742      42.388907531512217      18.697365961158443
  5442   6      18.563200283618805      30.053321818778493      17.250229715560806
  5443   1      25.158565889401736       43.35110452284146      18.298016929261955
  5444   1      18.230108127826092      31.015225152223621      17.649926507719169
  5445   1      25.599292452250729      41.642204287573918      18.477661584528629
  5446   1      17.789848278459182      29.306443058715711      17.469809369230703
  5447   1      24.758152128227682      42.462749334445391      19.785790768335328
  5448   1      18.630990925085168      30.127595325757245      16.161833650811779
  5449   7      23.001166771684371      40.674849876759147      14.860832633785314
  5450   7       20.38807167667164      28.339531053269223      21.086914795673565
  5451   6      21.124569028695728      42.068631739322235      17.674782562367788
  5452   6      22.264435542904252      29.733139416249301       18.27275439806683
  5453   1      21.374880074963439       41.80194505463529      16.643695599521049
  5454   1      22.014380644314457      29.466549216936681      19.303941366142613
  5455   1      21.066689115652085      41.134522509124928      18.240237163115474
  5456   1      22.322149458342743       28.79896913402678      17.707374257105659
  5457   6      23.535027437346173      41.894829404022246      18.070124315534947
  5458   6      19.853963765481478      29.559400114000184      17.877503597254272
  5459   1      23.235690851079205      40.936514326461648      18.506962997393767
  5460   1      20.153268707545692      28.601084262478874      17.440685335465698
  5461   1      23.654703157809777      41.723831914473116      16.995883629544853
  5462   1      19.734191991910254      29.388501170120449      18.951757395642495
  5463   6      23.042070048701259      30.227129957213634      23.288983959667341
  5464   6      20.346860474581558       42.56253075012917      12.658635576776067
  5465   1      23.054146398079631      30.316523797856387      22.198517569110585
  5466   1      20.334413220485935      42.651864529850478      13.749103548539516
  5467   1      22.640927651906285      31.155779615594419      23.706179937225947
  5468   1      20.748075779177796      43.491164551884353      12.241521933856273
  5469   1      22.343493169888063      29.419901564795371      23.539814138188945
  5470   1      21.045388819686895       41.75517744073916       12.40800559006637
  5471   6      24.410617805218727      29.868077710081113      23.836758769123733
  5472   6      18.978374472206458      42.203524216284762      12.110668443570122
  5473   1       24.60510358107588      29.492010951981971      12.880412723333757
  5474   1       18.78398416443985      41.827448620790882      23.067004392570837
  5475   1      24.870776036923491      29.075969940642899      23.241615051183132
  5476   1      18.518276570485881      41.411436020179131       12.70589061130252
  5477   6      21.963005372075106      42.076886356465337       20.63226681405142
  5478   6      21.425959290546793      29.741507112285223      15.315373788107456
  5479   1      21.074578701944628      41.471869376801173      20.426573163469801
  5480   1      22.314573923536557      29.136746123464498      15.520830821509293
  5481   1      21.844472304365659      42.494297040302598       21.63846617692483
  5482   1      21.544288012675253      30.158994294838841      14.309230489955747
  5483   1      22.841142287292566      41.424945531778576      20.667456540377771
  5484   1      20.548009306537342      29.089330254335231      15.280230025987633
  5485   6      25.558016971326758      31.621104039138476      22.461032880459808
  5486   6      17.831035650702212      43.956676941706149      13.486334914620036
  5487   1      17.416019223436678      32.468953033224551      22.564085861322084
  5488   1      25.972910573721471      44.804405288199803      13.383145135501017
  5489   1      24.585034985594422       32.03499170034722      22.181118348844961
  5490   1      18.804056019616432      44.370546928543213       13.76617938690509
  5491   6      17.217088744620423      30.636714497956156      21.411798882103771
  5492   6      26.172037394409667      42.972377455041986      14.535667654093277
  5493   1      17.386982823263793        31.2027901736244      20.486999040924619
  5494   1      26.001935729383177      43.538447644126151      15.460438408255641
  5495   1      25.303678279244149       29.85787588109179       21.19946747654776
  5496   1      18.085574690920001      42.193662521868319      14.747964003311074
  5497   1      18.157571613213193      30.149786082235448      21.690479681515782
  5498   1      25.231706024386494      42.485181404341155      14.256993665428833
  5499   6      22.536405818220366      43.979237504759297      15.928838801924357
  5500   6      20.852913929285858      31.643736437153525      20.018904865114944
  5501   1       21.52414657885673      43.833569099962901      15.541073428310694
  5502   1       21.86517259325154      31.497638090455144       20.40660739627242
  5503   1      23.169870922032874      43.163366891911863      15.574845070593881
  5504   1      20.219158132932009      30.828019916364134      20.372828998364831
  5505   1      22.915027282069918      44.912341561232168      15.497543323723274
  5506   1      20.474690230049447      32.576926634984467      20.450413918043992
  5507   6      25.151296708991456       32.15394739279224      12.779935477549479
  5508   6      18.237768302954169      44.489360223346168       23.16744677916622
  5509   1      25.996593073087887      32.837787693502776      12.900730470175636
  5510   1      17.392506866523526      45.173209664548452      23.046595114800962
  5511   1      24.375347068258929       32.68720827933587      12.221659195560976
  5512   1      19.013717005351747      45.022639961603431      23.725711611174454
  5513   6      24.615066717126368      31.687245905679156       14.12035730768223
  5514   6      18.773934145073234      44.022588318486385       21.82703406364114
  5515   1      23.655718632384406      31.175077083945226      14.009606104463323
  5516   1      19.733284533137457      43.510433598486131      21.937795754024908
  5517   1      24.445316116810428      32.566725122179179      14.752338917581362
  5518   1      18.943653802140275      44.901991064408946      21.194923389130523
  5519   1      25.311216026739313      31.032959229617113      14.653738399280925
  5520   1      18.077682672523562      43.368261170847134      21.293838805009642
  5521  29       21.92196345994671      37.065198265910993      25.180752911991483
  5522  29      20.973994463285596      24.729866720580102      34.731865718283515
  5523  29      18.863222021805242      36.373368367892702      25.669848624912575
  5524  29      24.032586497379206      48.708716118064416      34.242765954251091
  5525  29      23.236558156655789      36.907574318558261       34.03846170566684
  5526  29      19.659388996774851      49.243021293963551       25.87420025382777
  5527  29      24.606908308562168      36.802201493079153      27.093721423803874
  5528  29      18.288922754071052      49.137613543105701      32.819020250152661
  5529  29      25.740195696949051      36.797971063919846      32.131497930412948
  5530  29      17.155912527651807      49.133541995543546      27.781369572579351
  5531  29      20.121372410191825      36.670606800939893      33.098623693413593
  5532  29       22.77456144992636      49.005936189726633      26.814164785940918
  5533  29      18.491052977629007      36.623133853120997      28.935591594335058
  5534  29      24.404920878997522      48.958494856968201       30.97719763001712
  5535  29       21.60514560002386      37.266916226098871      28.526534953105749
  5536  29       21.29076497501331      24.931571757752884      31.386041140409848
  5537   7      25.692355946910773      37.833297274735088      28.464236368513934
  5538   7      17.203700191940317      25.498038613015716      31.448480955688837
  5539   7      25.214109178971462      38.251082357070089      29.510066478708698
  5540   7      17.681899350268683      25.915860196135714      30.402657398674371
  5541   7      21.807552390704963      38.203231551511152      31.469989368586774
  5542   7      21.088329428178024      25.867871275610568      28.442628477929262
  5543   7      18.425335939185459       35.29608761285246      34.875774342923251
  5544   7      24.470467311930509      47.631436097440428      25.036834295890401
  5545   7      21.447664287570092      35.836960378804399      34.381214070712986
  5546   7      21.448229285157574       48.17235080008777      25.531445866072477
  5547   7      23.576325563019619      35.818485613041446      25.644141341258095
  5548   7      19.319680499367706      48.153878917120664      34.268605525904164
  5549   7      20.048036722300591       37.85623568562103      24.868720483543623
  5550   7      22.847740021363474      25.520688370680535         35.044030972087
  5551   7      17.494539022278886      34.500353520292052      30.585170393076364
  5552   7      25.401477294348837      46.835799855922787      29.327476826684205
  5553   7        21.4553601020447      34.622882374475886      34.572099595713851
  5554   7      21.440481417516693      46.958245481367356      25.340717949781364
  5555   7      22.021120878746451        38.4747198968875      30.340033778821379
  5556   7      20.874843514225386      26.139417900968496       29.57258485936083
  5557   7      18.756415624585017      37.714292225338369      32.006030311176701
  5558   7      24.139546539288656      25.379001114662202      27.906579803472507
  5559   7      23.969213457416508        35.8452046074744      32.444998953562468
  5560   7      18.926821147563963       48.18066275919621      27.467669015364148
  5561   7      18.170181914799702      34.110606818202797      27.262260410182638
  5562   7      24.725596678192545      46.445892959654444       32.65046453037796
  5563   7      18.541683497373462      35.562031980548895      33.703784724174533
  5564   7      24.354218352398512      47.897386221850631      26.208829323333983
  5565   7      17.133811929573959      37.419271595152381      25.701825610312387
  5566   7       25.76195162561342      25.083952197225994      34.210953796064771
  5567   7       23.29610660483312      34.934433433154013      28.745078376732561
  5568   7      19.599926221664294      47.269961796557595      31.167481250907461
  5569   7      19.503630864111241      38.532458065425729      35.870742921496628
  5570   7      23.392178006248258      26.196893806947571      24.041986247250936
  5571   7      17.480635203784733      35.726764847206006      30.490477617074426
  5572   7       25.41532571578599      48.062231701140561      29.422204375809205
  5573   7      20.761299087179133      35.038259237156794      31.544933267083003
  5574   7      22.134702238604895      47.373664824943248      28.367713305018647
  5575   7      25.797127965281486      38.537886359599284      25.225721672195384
  5576   7      17.098720482683625      26.202546956928771      34.687079986881727
  5577   7      22.541665069459789      39.216994258494999       35.54076565172263
  5578   7      20.354141446265189      26.881587496373577      24.371901959376601
  5579   7      23.314141349908382      36.142792278136717      28.523615617037816
  5580   7       19.58170490657551      48.478308396077267      31.388997704473105
  5581   7      20.361687162210821      35.729022376906741      29.287019675007151
  5582   7      22.534067164157044      48.064322856682793      30.625698710764588
  5583   7       22.52243008098792      38.293739891897879       26.99392292705889
  5584   7      20.373529386607974      25.958403553994099      32.918826674737502
  5585   7      24.947493473894145       39.15906482852904      33.499781283801099
  5586   7      17.948513669580962      26.823749027209175      26.412903746112868
  5587   7      21.619114525658059       37.97521805886133      32.646780233239539
  5588   7      21.276737650945222      25.639769048611406      27.265848150440345
  5589   7      20.730210463418686      35.672047833370371       26.06363224163799
  5590   7      22.165632189629147       48.00733082987405      33.849079807106463
  5591   7      17.990244871176376      35.321987514428841      27.224829461612394
  5592   7      24.905672057223686      47.657256407029315      32.687929897177661
  5593   7      19.773045360812421      38.073624810248354      28.318387685637639
  5594   7      23.122876149490377        25.7384529763651      31.594267775878066
  5595   7      22.680669841008708      38.002216891961133       35.68456566937094
  5596   7      20.215189107703683      25.666809817387698      24.228091574139892
  5597   7      21.040094916827137      34.486263931385047      26.145633686124061
  5598   7       21.85571768941012      46.821550025401649      33.767097129537632
  5599   7      24.116451027778375      35.537804790313551      24.585012727847765
  5600   7      18.779470353845507      47.873139175312417      35.327687186059563
  5601   7      22.085314756115192      42.827767237180879      30.198534824044291
  5602   7      20.810563097457337      30.492321899461555      29.714129736704269
  5603   7       25.15290294341046      31.028968465148441      35.834065230553222
  5604   7      17.742972366418474      43.364409285646275      24.078408883202766
  5605   7      22.620887212481708      39.512788033352123      26.938697988928222
  5606   7      20.275126266823658      27.177452525283954      32.974094266473514
  5607   7      24.981417850933397      37.937890727228123       33.64568957826657
  5608   7      17.914499514621529      25.602588574026413      26.266868920129518
  5609   7      18.839740743581142      38.935306877422313      31.884811940033348
  5610   7      24.056187437949212      26.600005485372666      28.027831317875119
  5611   7      20.572136004800118      35.376054919186672      30.435137866799195
  5612   7      22.323719445240091      47.711442246675816      29.477545800442748
  5613   7      23.820511549383085       34.62579308455409      32.401400739163861
  5614   7      19.075400805784859       46.96123670096857      27.511173156499073
  5615   7      17.509208035947122      33.334861504070119      30.666232466172914
  5616   7       25.38682544203856      45.670287208316623      29.246489387301953
  5617   7       19.51116571654368      39.142388652389116      27.781493974259554
  5618   7      23.384750373557157      26.807201400521151       32.13121037010923
  5619   7      19.227483708586728      39.197183815101852      34.949221625096172
  5620   7      23.668438482084074      26.861650042315226      24.963446740251069
  5621   7      23.638673446924244      33.474211286923946       32.34578269614066
  5622   7      19.257002243621539      45.809616961774424      27.566663222639818
  5623   7      21.362409162430346      33.369414023836029      26.240091163037157
  5624   7      21.533345117111615      45.704703478301511      33.672769155363646
  5625   7       18.31547478207883      32.947541286046032      27.291204852164249
  5626   7      24.580155661728298      45.282842206216543      32.621455284631935
  5627   7      21.476876246148315      33.478558339585597      34.809564292904142
  5628   7      21.419016383704847      45.813886490832623        25.1034451756551
  5629   7      24.289190037431815      35.302086091836202      35.498212392513608
  5630   7      18.606517223332073      47.637412573476098      24.414390897723958
  5631   7      19.258916793189208      40.163857354317521      27.273208460835871
  5632   7      23.636839644258863      27.828761175687522      32.639413476340181
  5633   7      23.298051401923665      33.788734120091561      28.977412747765406
  5634   7      19.598074755742999      46.124246217459017      30.935231565923281
  5635   7      24.845557761249943      38.623533162128226      30.557065436675302
  5636   7      18.050424088746389      26.288439889387167      29.355684326136608
  5637   7      22.422392600494611      40.369900805984415      35.407376314471861
  5638   7      20.473390693575226      28.034498158109859      24.505254065608327
  5639   7      18.516479329861831      34.995865586548177      24.028627970414149
  5640   7      24.379300519239813      47.331227189038216      35.883971790227235
  5641   7      18.913268149544542      40.089456909346978      31.730538555105014
  5642   7      23.982686692705464      27.754166279169112      28.182104552741144
  5643   7      24.925226126135101       40.31859737064088      33.378005682476235
  5644   7      17.970841078936388       27.98325977427228        26.5348454876274
  5645   6      17.906341763643859      30.485810627115178      24.377224252507162
  5646   6       24.98951646297941      42.821221775134752      35.535315629159257
  5647   1      17.754892947396485      30.310720390289514      25.445008217813932
  5648   1      25.140944878445179      42.646304123033474      34.467509830596541
  5649   1      17.806594877508729      29.506479127540135      35.897791493019028
  5650   1      25.089326468680177       41.84185813303074      24.014706158030297
  5651   7      25.604746874535664      39.594913379409135      24.770892899758994
  5652   7      17.291118920023536       27.25957072013626      35.141913632724915
  5653   6      19.564393603702555      42.824751313119165      29.728990531251171
  5654   6      23.331527883242956      30.489149703106882       30.18325190140304
  5655   1      19.596605936706148      43.795135400282007      29.224675206630774
  5656   1      23.299377779961191      31.459690719528073       30.68729539170414
  5657   1      19.225853535049239      42.974278105640416      30.758508763263432
  5658   1      23.669887790287376      30.638297181377201      29.153618452639616
  5659   1       18.81166325142879      42.209436077289276      29.222548031985276
  5660   1      24.084320014956532      29.873927492104634      30.689725495727824
  5661   6      19.103531632109522      31.385944540600125       24.13359803585524
  5662   6      23.792388277443585      43.721346400346263      35.778999019624791
  5663   1      19.160742112856521      31.405920867059226      35.065531369460089
  5664   1      23.735288881394961      43.741514363362597      24.847072444191046
  5665   1      19.943167534851696      30.981040477383011      24.708409998332012
  5666   1      22.952651801765295      43.316408011207329      35.204383399873343
  5667   1       18.94662437065362      32.414002108453325      24.471604311786404
  5668   1      23.949280890233013      44.749308379645448      35.440772427904804
  5669   6      22.305031714433536      44.125140034923298      29.421410807137558
  5670   6      20.590929681390893      31.789707691612737      30.491327980578681
  5671   1      21.520261178405839       44.81406851953011      29.750644371324885
  5672   1      21.375599399108925      32.478728682809233      30.162021565451333
  5673   1      23.260202628847374      44.528086353286341      29.769629745461387
  5674   1      19.635679442469964      32.192716215008581      30.143327372441497
  5675   6       21.88260712903373      43.235187531073123      31.651023865862467
  5676   6      21.013164222348383       30.89973611553367      28.261660327056273
  5677   1      21.010164595411684      43.895065947603868      31.665992271855917
  5678   1      21.885454760707749      31.559827360964707      28.246657548064633
  5679   1      22.746469603922069      43.851079605921385      31.918492246861192
  5680   1      20.149124479435656       31.51539867152465      27.994372911539489
  5681   6      24.579230083146992      42.388905951732923      30.679893716631547
  5682   6      18.316638847317055      30.053320238999198      29.232757471033914
  5683   1      24.912004453099982      43.351102943062173      30.280544684735059
  5684   1      17.983546691524342      31.015223572444327      29.632454263192272
  5685   1      25.352731015948979      41.642202707794631      30.460189340001737
  5686   1      17.543286842157432      29.306441478936421      29.452337124703806
  5687   1      24.511590691925932      42.462747754666097      31.768318523808432
  5688   1      18.384429488783418      30.127593745977954      28.144361406284887
  5689   7      22.754605335382621       40.67484829697986      26.843360389258422
  5690   7       20.14151024036989      28.339529473489932      33.069442551146672
  5691   6      20.878007592393978      42.068630159542948      29.657310317840896
  5692   6      22.017874106602502      29.733137836470007      30.255282153539934
  5693   1      21.128318638661689      41.801943474856003      28.626223354994156
  5694   1      21.767819208012707       29.46654763715739      31.286469121615717
  5695   1      20.820127679350335      41.134520929345641      30.222764918588581
  5696   1      22.075588022040993       28.79896755424749      29.689902012578766
  5697   6      23.288466001044423      41.894827824242952      30.052652071008055
  5698   6      19.607402329179727      29.559398534220893      29.860031352727379
  5699   1      22.989129414777459      40.936512746682361      30.489490752866875
  5700   1      19.906707271243942      28.601082682699584      29.423213090938802
  5701   1      23.408141721508024       41.72383033469383       28.97841138501796
  5702   1      19.487630555608504      29.388499590341155      30.934285151115603
  5703   6      22.795508612399509      30.227128377434344      35.271511715140448
  5704   6      20.100299038279807      42.562529170349876      24.641163332249171
  5705   1      22.807584961777881      30.316522218077097      34.181045324583692
  5706   1      20.087851784184185      42.651862950071191      25.731631304012623
  5707   1      22.394366215604535      31.155778035815132      35.688707692699055
  5708   1      20.501514342876046      43.491162972105059      24.224049689329377
  5709   1      22.096931733586313       29.41989998501608      35.522341893662052
  5710   1      20.798827383385145      41.755175860959866      24.390533345539474
  5711   6      24.164056368916974      29.868076130301823      35.819286524596841
  5712   6      18.731813035904707      42.203522636505475      24.093196199043227
  5713   1       24.35854214477413      29.492009372202681      24.862940478806863
  5714   1        18.5374227281381      41.827447041011595      35.049532148043937
  5715   1      24.624214600621741      29.075968360863609      35.224142806656232
  5716   1      18.271715134184131      41.411434440399844      24.688418366775625
  5717   6      21.716443935773356      42.076884776686043       32.61479456952452
  5718   6      21.179397854245043      29.741505532505933      27.297901543580561
  5719   1      20.828017265642877      41.471867797021886      32.409100918942904
  5720   1      22.068012487234807      29.136744543685204        27.5033585769824
  5721   1      21.597910868063913      42.494295460523304      33.620993932397937
  5722   1      21.297726576373503      30.158992715059551      26.291758245428852
  5723   1      22.594580850990816      41.424943951999282      32.649984295850878
  5724   1      20.301447870235592       29.08932867455594      27.262757781460738
  5725   6      25.311455535025011      31.621102459359186      34.443560635932911
  5726   6      17.584474214400462      43.956675361926855      25.468862670093142
  5727   1      17.169457787134927      32.468951453445257      34.546613616795192
  5728   1      25.726349137419721      44.804403708420516      25.365672890974121
  5729   1      24.338473549292672      32.034990120567926      34.163646104318062
  5730   1      18.557494583314682      44.370545348763926      25.748707142378194
  5731   6      16.970527308318673      30.636712918176865      33.394326637576874
  5732   6      25.925475958107917      42.972375875262699      26.518195409566385
  5733   1      17.140421386962043      31.202788593845106      32.469526796397723
  5734   1      25.755374293081431      43.538446064346857      27.442966163728745
  5735   1      25.057116842942399      29.857874301312499      33.181995232020867
  5736   1      17.839013254618251      42.193660942089025      26.730491758784179
  5737   1      17.911010176911443      30.149784502456157       33.67300743698889
  5738   1      24.985144588084744      42.485179824561868      26.239521420901941
  5739   6      22.289844381918616       43.97923592498001      27.911366557397464
  5740   6      20.606352492984108      31.643734857374234      32.001432620588048
  5741   1       21.27758514255498      43.833567520183607        27.5236011837838
  5742   1       21.61861115694979      31.497636510675854      32.389135151745521
  5743   1      22.923309485731124      43.163365312132576      27.557372826066985
  5744   1      19.972596696630259      30.828018336584844      32.355356753837938
  5745   1      22.668465845768168      44.912339981452874      27.480071079196378
  5746   1      20.228128793747693      32.576925055205173      32.432941673517099
  5747   6      24.904735272689706      32.153945813012953      24.762463233022583
  5748   6      17.991206866652419      44.489358643566874      35.149974534639327
  5749   1      25.750031636786133      32.837786113723482      24.883258225648742
  5750   1      17.145945430221776      45.173208084769158      35.029122870274065
  5751   1      24.128785631957179      32.687206699556576      24.204186951034082
  5752   1      18.767155569049997      45.022638381824144      35.708239366647561
  5753   6      24.368505280824614      31.687244325899869      26.102885063155334
  5754   6      18.527372708771484      44.022586738707091      33.809561819114244
  5755   1      23.409157196082656      31.175075504165935      25.992133859936427
  5756   1      19.486723096835707      43.510432018706837      33.920323509498012
  5757   1      24.198754680508678      32.566723542399885      26.734866673054466
  5758   1      18.697092365838525      44.901989484629652       33.17745114460363
  5759   1      25.064654590437563      31.032957649837822      26.636266154754029
  5760   1      17.831121236221811      43.368259591067847      33.276366560482742
  5761  29      22.415084711183198      61.735970764772333      1.2156974010452735
  5762  29      21.467115714522084      49.400639219441445      10.766810207337304
  5763  29       19.35634327304173      61.044140866754041      1.7047931139663628
  5764  29      24.525707748615694      73.379488616925755      10.277710443304878
  5765  29      23.729679407892277        61.5783468174196      10.073406194720627
  5766  29      20.152510248011339       73.91379379282489      1.9091447428815596
  5767  29      25.100029559798656      61.472973991940492       3.128665912857663
  5768  29       18.78204400530754       73.80838604196704      8.8539647392064484
  5769  29      26.233316948185539      61.468743562781185      8.1664424194667404
  5770  29      17.649033778888295      73.804314494404878      3.8163140616331384
  5771  29      20.614493661428313      61.341379299801233      9.1335681824673802
  5772  29      23.267682701162848      73.676708688587979      2.8491092749947078
  5773  29      18.984174228865495      61.293906351982336       4.970536083388847
  5774  29       24.89804213023401      73.629267355829541      7.0121421190709086
  5775  29      22.098266851260348      61.937688724960211      4.5614794421595377
  5776  29      21.783886226249798      49.602344256614224      7.4209856294636376
  5777   7      26.185477198147261      62.504069773596427      4.4991808575677226
  5778   7      17.696821443176805      50.168811111877055      7.4834254447426245
  5779   7       25.70723043020795      62.921854855931429      5.5450109677624866
  5780   7      18.175020601505171      50.586632694997057      6.4376018877281602
  5781   7      22.300673641941451      62.874004050372491      7.5049338576405642
  5782   7      21.581450679414512      50.538643774471907      4.4775729669830495
  5783   7      18.918457190421947        59.9668601117138      10.910718831977039
  5784   7      24.963588563166997      72.302208596301767      1.0717787849441902
  5785   7       21.94078553880658      60.507732877665738      10.416158559766773
  5786   7      21.941350536394062      72.843123298949109       1.566390355126267
  5787   7      24.069446814256107      60.489258111902785       1.679085830311885
  5788   7      19.812801750604194      72.824651415982004      10.303550014957949
  5789   7      20.541157973537079      62.527008184482369     0.90366497259741219
  5790   7      23.340861272599962      50.191460869541871      11.078975461140789
  5791   7      17.987660273515374      59.171126019153391      6.6201148821301521
  5792   7      25.894598545585325      71.506572354784126      5.3624213157379943
  5793   7      21.948481353281188      59.293654873337225      10.607044084767642
  5794   7      21.933602668753181      71.629017980228696      1.3756624388351535
  5795   7      22.514242129982939      63.145492395748839       6.374978267875167
  5796   7      21.367964765461874      50.810190399829835      5.6075293484146211
  5797   7      19.249536875821505      62.385064724199708      8.0409748002304884
  5798   7      24.632667790525144      50.049773613523541      3.9415242925262959
  5799   7      24.462334708652996       60.51597710633574      8.4799434426162552
  5800   7      19.419942398800451      72.851435258057549      3.5026135044179361
  5801   7       18.66330316603619      58.781379317064136      3.2972048992364256
  5802   7      25.218717929429033      71.116665458515783      8.6854090194317504
  5803   7       19.03480474860995      60.232804479410234      9.7387292132283196
  5804   7         24.847339603635      72.568158720711978      2.2437738123877731
  5805   7      17.626933180810447       62.09004409401372      1.7367700993661772
  5806   7      26.255072876849908      49.754724696087337      10.245898285118564
  5807   7      23.789227856069608      59.605205932015352      4.7800228657863491
  5808   7      20.093047472900782      71.940734295418935      7.2024257399612486
  5809   7      19.996752115347729      63.203230564287068      11.905687410550415
  5810   7      23.885299257484746       50.86766630580891    0.076930736304725078
  5811   7      17.973756455021221      60.397537346067345      6.5254221061282127
  5812   7      25.908446967022478      72.733004200001901      5.4571488648629929
  5813   7      21.254420338415621      59.709031736018133      7.5798777561367912
  5814   7      22.627823489841383      72.044437323804587      4.4026577940724367
  5815   7      26.290249216517974      63.208658858460623      1.2606661612491736
  5816   7      17.591841733920113       50.87331945579011       10.72202447593552
  5817   7      23.034786320696277      63.887766757356339      11.575710140776419
  5818   7      20.847262697501677      51.552359995234916     0.40684644843038786
  5819   7       23.80726260114487      60.813564776998057      4.5585601060916048
  5820   7      20.074826157811998      73.149080894938606      7.4239421935268934
  5821   7      20.854808413447309       60.39979487576808      5.3219641640609412
  5822   7      23.027188415393532      72.735095355544132      6.6606431998183764
  5823   7      23.015551332224408      62.964512390759218      3.0288674161126767
  5824   7      20.866650637844462      50.629176052855442      8.9537711637912931
  5825   7      25.440614725130633      63.829837327390379      9.5347257728548875
  5826   7      18.441634920817449      51.494521526070514      2.4478482351666573
  5827   7      22.112235776894547      62.645990557722669      8.6817247222933318
  5828   7       21.76985890218171      50.310541547472745      3.3007926394941349
  5829   7      21.223331714655174       60.34282033223171      2.0985767306917804
  5830   7      22.658753440865635      72.678103328735389      9.8840242961602485
  5831   7      18.483366122412864       59.99276001329018       3.259773950666184
  5832   7      25.398793308460174      72.328028905890648      8.7228743862314513
  5833   7      20.266166612048909      62.744397309109694      4.3533321746914284
  5834   7      23.615997400726865      50.409225475226435      7.6292122649318568
  5835   7      23.173791092245196      62.672989390822472      11.719510158424725
  5836   7      20.708310358940171      50.337582316249033     0.26303606319368061
  5837   7      21.533216168063625      59.157036430246386      2.1805781751778497
  5838   7      22.348838940646608      71.492322524262988       9.802041618591419
  5839   7      24.609572279014863       60.20857728917489     0.61995721690155225
  5840   7      19.272591605081995      72.543911674173756      11.362631675113349
  5841   7       22.57843600735168      67.498539736042218      6.2334793130980799
  5842   7      21.303684348693825       55.16309439832289      5.7490742257580587
  5843   7      25.646024194646948      55.699740964009777      11.869009719607009
  5844   7      18.236093617654962      68.035181784507614     0.11335337225655616
  5845   7      23.114008463718196      64.183560532213463      2.9736424779820125
  5846   7      20.768247518060146      51.848225024145293      9.0090387555273015
  5847   7      25.474539102169885      62.608663226089462      9.6806340673203568
  5848   7      18.407620765858017      50.273361072887752      2.3018134091833065
  5849   7       19.33286199481763      63.606079376283652      7.9197564290871378
  5850   7        24.5493086891857      51.270777984234002      4.0627758069289097
  5851   7      21.065257256036606      60.046827418048011      6.4700823558529832
  5852   7      22.816840696476579      72.382214745537155      5.5124902894965349
  5853   7      24.313632800619573      59.296565583415429      8.4363452282176503
  5854   7      19.568522057021347      71.632009199829909       3.546117645552862
  5855   7       18.00232928718361      58.005634002931458      6.7011769552267015
  5856   7      25.879946693275048      70.341059707177962      5.2814338763557416
  5857   7      20.004286967780168      63.813161151250455      3.8164384633133417
  5858   7      23.877871624793645      51.477973899382491      8.1661548591630222
  5859   7      19.720604959823216      63.867956313963191      10.984166114149959
  5860   7      24.161559733320562      51.532422541176565     0.99839122930485635
  5861   7      24.131794698160732      58.144983785785286      8.3807271851944467
  5862   7      19.750123494858027      70.480389460635763      3.6016077116936072
  5863   7      21.855530413666834      58.040186522697368      2.2750356520909465
  5864   7      22.026466368348103       70.37547597716285       9.707713644417435
  5865   7      18.808596033315318      57.618313784907372      3.3261493412180396
  5866   7      25.073276912964786      69.953614705077882      8.6563997736857257
  5867   7      21.969997497384803      58.149330838446936      10.844508781957927
  5868   7      21.912137634941335      70.484658989693969      1.1383896647088887
  5869   7      24.782311288668303      59.972858590697541      11.533156881567393
  5870   7      19.099638474568561      72.308185072337437     0.44933538677774715
  5871   7      19.752038044425696      64.834629853178853        3.30815294988966
  5872   7      24.129960895495351      52.499533674548857      8.6743579653939733
  5873   7      23.791172653160153      58.459506618952901      5.0123572368191969
  5874   7      20.091196006979487      70.795018716320357      6.9701760549770704
  5875   7      25.338679012486431      63.294305660989565      6.5920099257290907
  5876   7      18.543545339982877      50.959212388248503      5.3906288151903956
  5877   7      22.915513851731099      65.040673304845754      11.442320803525647
  5878   7      20.966511944811714      52.705270656971202     0.54019855466211697
  5879   7      19.009600581098319      59.666638085409517    0.063572459467938755
  5880   7      24.872421770476301      72.001999687899556      11.918916279281023
  5881   7       19.40638940078103      64.760229408208318      7.7654830441588034
  5882   7      24.475807943941952      52.424938778030452      4.2170490417949322
  5883   7      25.418347377371589      64.989369869502227      9.4129501715300243
  5884   7      18.463962330172876      52.654032273133616      2.5697899766811876
  5885   6      18.399463014880347      55.156583125976518     0.41216874156095079
  5886   6      25.482637714215898      67.491994273996085      11.570260118213042
  5887   1      18.248014198632973      54.981492889150857      1.4799527068677203
  5888   1      25.634066129681667      67.317076621894813      10.502454319650329
  5889   1      18.299716128745217      54.177251626401478      11.932735982072813
  5890   1      25.582447719916665       66.51263063189208    0.049650647084087035
  5891   7      26.097868125772152      64.265685878270475     0.80583738881278266
  5892   7      17.784240171260024      51.930343218997599      11.176858121778706
  5893   6      20.057514854939043      67.495523811980505      5.7639350203049595
  5894   6      23.824649134479444      55.159922201968222      6.2181963904568294
  5895   1      20.089727187942636      68.465907899143346      5.2596196956845622
  5896   1      23.792499031197679      56.130463218389416      6.7222398807579298
  5897   1      19.718974786285727      67.645050604501762        6.79345325231722
  5898   1      24.163009041523864      55.309069680238537      5.1885629416934043
  5899   1      19.304784502665278      66.880208576150608      5.2574925210390653
  5900   1       24.57744126619302      54.544699990965974       6.724669984781614
  5901   6       19.59665288334601      56.056717039461461     0.16854252490902921
  5902   6      24.285509528680073      68.392118899207603      11.813943508678584
  5903   1      19.653863364093009      56.076693365920562       11.10047585851388
  5904   1      24.228410132631449      68.412286862223937      0.8820169332448351
  5905   1      20.436288786088184      55.651812976244351     0.74335448738580023
  5906   1      23.445773053001783      67.987180510068669       11.23932788892713
  5907   1      19.439745621890108      57.084774607314664     0.50654880084019216
  5908   1      24.442402141469501      69.420080878506781      11.475716916958596
  5909   6      22.798152965670024      68.795912533784644      5.4563552961913473
  5910   6      21.084050932627381      56.460480190474073      6.5262724696324712
  5911   1      22.013382429642327       69.48484101839145      5.7855888603786729
  5912   1      21.868720650345413      57.149501181670573      6.1969660545051228
  5913   1      23.753323880083862       69.19885885214768      5.8045742345151758
  5914   1      20.128800693706452       56.86348871386992      6.1782718614952854
  5915   6      22.375728380270218      67.905960029934462      7.6859683549162563
  5916   6      21.506285473584871       55.57050861439501      4.2966048161100616
  5917   1      21.503285846648172      68.565838446465207      7.7009367609097064
  5918   1      22.378576011944237       56.23059985982605      4.2816020371184234
  5919   1      23.239590855158557      68.521852104782724      7.9534367359149813
  5920   1      20.642245730672144       56.18617117038599      4.0293174005932784
  5921   6       25.07235133438348      67.059678450594262      6.7148382056853375
  5922   6      18.809760098553543      54.724092737860538      5.2677019600877015
  5923   1       25.40512570433647      68.021875441923513      6.3154891737888477
  5924   1       18.47666794276083      55.685996071305667      5.6673987522460632
  5925   1      25.845852267185467      66.312975206655977      6.4951338290555247
  5926   1       18.03640809339392       53.97721397779776      5.4872816137575953
  5927   1       25.00471194316242      67.133520253527436      7.8032630128622218
  5928   1      18.877550740019906      54.798366244839293      4.1793058953386746
  5929   7      23.247726586619109      65.345620795841199      2.8783048783122096
  5930   7      20.634631491606378      53.010301972351272      9.1043870402004607
  5931   6      21.371128843630466      66.739402658404288      5.6922548068946845
  5932   6       22.51099535783899      54.403910335331346      6.2902266425937228
  5933   1      21.621439889898177      66.472715973717342      4.6611678440479443
  5934   1      22.260940459249195      54.137320136018729      7.3214136106695067
  5935   1      21.313248930586823       65.80529342820698       6.257709407642368
  5936   1      22.568709273277481      53.469740053108829      5.7248465016325545
  5937   6      23.781587252280911      66.565600323104292      6.0875965600618427
  5938   6      20.100523580416215      54.230171033082229      5.8949758417811671
  5939   1      23.482250666013947      65.607285245543693      6.5244352419206626
  5940   1       20.39982852248043      53.271855181560923      5.4581575799925917
  5941   1      23.901262972744512      66.394602833555169      5.0133558740717481
  5942   1      19.980751806844992      54.059272089202494      6.9692296401693898
  5943   6      23.288629863635997      54.897900876295679      11.306456204194236
  5944   6      20.593420289516295      67.233301669211215     0.67610782130296165
  5945   1      23.300706213014369      54.987294716938436       10.21598981363748
  5946   1      20.580973035420673       67.32263544893253      1.7665757930664105
  5947   1      22.887487466841023      55.826550534676471      11.723652181752843
  5948   1      20.994635594112534      68.161935470966398     0.25899417838316663
  5949   1      22.590052984822801       54.09067248387742      11.557286382715841
  5950   1      21.291948634621633      66.425948359821206     0.42547783459326416
  5951   6      24.657177620153462      54.538848629163162      11.854231013650629
  5952   6      19.224934287141195      66.874295135366822      0.1281406880970157
  5953   1      24.851663396010618       54.16278187106402     0.89788496786065197
  5954   1      19.030543979374588      66.498219539872935       11.08447663709773
  5955   1      25.117335851858229      53.746740859724952      11.259087295710025
  5956   1      18.764836385420619      66.082206939261184     0.72336285582941362
  5957   6      22.209565187009844      66.747657275547382      8.6497390585783123
  5958   6       21.67251910548153      54.412278031367272      3.3328460326343503
  5959   1      21.321138516879365      66.142640295883226      8.4440454079966951
  5960   1      22.561133738471295      53.807517042546543      3.5383030660361872
  5961   1      22.091032119300401      67.165067959384643      9.6559384214517223
  5962   1      21.790847827609991      54.829765213920894      2.3267027344826414
  5963   1      23.087702102227304      66.095716450860621       8.684928784904665
  5964   1       20.79456912147208      53.760101173417283      3.2977022705145274
  5965   6      25.804576786261499      56.291874958220525      10.478505124986702
  5966   6       18.07759546563695      68.627447860788195      1.5038071591469302
  5967   1      17.662579038371415      57.139723952306596      10.581558105848979
  5968   1      26.219470388656209      69.475176207281862      1.4006173800279111
  5969   1       24.83159480052916      56.705762619429265      10.198590593371854
  5970   1       19.05061583455117      69.041317847625265      1.7836516314319844
  5971   6       17.46364855955516      55.307485417038208       9.429271126630665
  5972   6      26.418597209344405      67.643148374124038      2.5531398986201723
  5973   1      17.633542638198531      55.873561092706446      8.5044712854515137
  5974   1      26.248495544317919      68.209218563208196      3.4779106527825343
  5975   1      25.550238094178887      54.528646800173838      9.2169397210746542
  5976   1      18.332134505854739      66.864433440950364      2.7654362478379682
  5977   1      18.404131428147931      54.820557001317496      9.7079519260426785
  5978   1      25.478265839321232      67.155952323423207      2.2744659099557287
  5979   6      22.782965633155104      68.650008423841342      3.9463110464512514
  5980   6      21.099473744220596      56.314507356235573      8.0363771096418386
  5981   1      21.770706393791468      68.504340019044946      3.5585456728375893
  5982   1      22.111732408186278      56.168409009537193       8.424079640799313
  5983   1      23.416430736967612      67.834137810993923      3.5923173151207748
  5984   1      20.465717947866747      55.498790835446179      8.3903012428917254
  5985   1      23.161587097004656      69.583112480314213      3.5150155682501687
  5986   1      20.721250044984181      57.247697554066512      8.4678861625708883
  5987   6      25.397856523926194      56.824718311874292     0.79740772207637278
  5988   6      18.484328117888907      69.160131142428213      11.184919023693116
  5989   1      26.243152888022621      57.508558612584821     0.91820271470253068
  5990   1      17.639066681458264      69.843980583630497      11.064067359327856
  5991   1      24.621906883193667      57.357979198417915     0.23913144008786985
  5992   1      19.260276820286485      69.693410880685491      11.743183855701348
  5993   6      24.861626532061102      56.358016824761208      2.1378295522091237
  5994   6      19.020493960007972       68.69335923756843      9.8445063081680342
  5995   1      23.902278447319144      55.845848003027271      2.0270783489902171
  5996   1      19.979844348072195      68.181204517568176      9.9552679985518022
  5997   1      24.691875931745166      57.237496041261224       2.769811162108256
  5998   1      19.190213617075013      69.572761983490992      9.2123956336574171
  5999   1      25.557775841674051      55.703730148699165      2.6712106438078189
  6000   1      18.324242487458299      68.039032089929179      9.3113110495365348
  6001  29      22.168523274881448      61.735969184993046      13.198225156518379
  6002  29      21.220554278220334      49.400637639662158      22.749337962810408
  6003  29       19.10978183673998      61.044139286974755      13.687320869439468
  6004  29      24.279146312313944      73.379487037146461      22.260238198777984
  6005  29      23.483117971590527      61.578345237640313      22.055933950193733
  6006  29      19.905948811709589       73.91379221304561      13.891672498354666
  6007  29      24.853468123496906      61.472972412161205      15.111193668330769
  6008  29       18.53548256900579       73.80838446218776      20.836492494679554
  6009  29      25.986755511883786      61.468741983001898      20.148970174939848
  6010  29      17.402472342586545      73.804312914625598      15.798841817106243
  6011  29      20.367932225126562      61.341377720021939      21.116095937940486
  6012  29      23.021121264861097      73.676707108808685      14.831637030467814
  6013  29      18.737612792563745      61.293904772203049      16.953063838861951
  6014  29       24.65148069393226      73.629265776050246      18.994669874544016
  6015  29      21.851705414958598      61.937687145180924      16.544007197632645
  6016  29      21.537324789948048      49.602342676834937      19.403513384936744
  6017   7      25.938915761845511       62.50406819381714       16.48170861304083
  6018   7      17.450260006875055      50.168809532097768      19.465953200215729
  6019   7      25.460668993906204      62.921853276152142      17.527538723235594
  6020   7      17.928459165203421       50.58663111521777      18.420129643201264
  6021   7      22.054112205639704      62.874002470593197       19.48746161311367
  6022   7      21.334889243112762      50.538642194692621      16.460100722456154
  6023   7      18.671895754120197       59.96685853193452      22.893246587450143
  6024   7      24.717027126865247      72.302207016522487      13.054306540417295
  6025   7       21.69422410250483      60.507731297886451      22.398686315239878
  6026   7      21.694789100092315      72.843121719169829      13.548918110599372
  6027   7      23.822885377954357      60.489256532123498      13.661613585784991
  6028   7      19.566240314302444      72.824649836202724      22.286077770431056
  6029   7      20.294596537235329      62.527006604703082      12.886192728070517
  6030   7      23.094299836298212      50.191459289762584      23.061503216613893
  6031   7      17.741098837213624      59.171124439374111      18.602642637603257
  6032   7      25.648037109283575      71.506570775004832      17.344949071211101
  6033   7      21.701919916979442      59.293653293557938      22.589571840240747
  6034   7      21.687041232451428      71.629016400449416      13.358190194308259
  6035   7      22.267680693681189      63.145490815969552      18.357506023348272
  6036   7      21.121403329160124      50.810188820050548      17.590057103887727
  6037   7      19.002975439519755      62.385063144420428      20.023502555703594
  6038   7      24.386106354223394      50.049772033744254      15.924052047999401
  6039   7      24.215773272351246      60.515975526556446      20.462471198089361
  6040   7      19.173380962498705      72.851433678278255      15.485141259891041
  6041   7       18.41674172973444      58.781377737284856       15.27973265470953
  6042   7      24.972156493127283      71.116663878736503      20.667936774904856
  6043   7      18.788243312308197      60.232802899630947      21.721256968701425
  6044   7       24.60077816733325      72.568157140932684       14.22630156786088
  6045   7      17.380371744508697      62.090042514234433      13.719297854839283
  6046   7      26.008511440548155       49.75472311630805      22.228426040591671
  6047   7      23.542666419767862      59.605204352236065      16.762550621259454
  6048   7      19.846486036599032      71.940732715639655      19.184953495434353
  6049   7      19.750190679045978      63.203228984507774      23.888215166023521
  6050   7      23.638737821182996      50.867664726029624       12.05945849177783
  6051   7       17.72719501871947      60.397535766288058      18.507949861601318
  6052   7      25.661885530720724      72.733002620222621      17.439676620336098
  6053   7       21.00785890211387      59.709030156238853      19.562405511609896
  6054   7      22.381262053539633      72.044435744025293      16.385185549545543
  6055   7      26.043687780216224      63.208657278681343       13.24319391672228
  6056   7      17.345280297618363      50.873317876010823      22.704552231408627
  6057   7      22.788224884394531      63.887765177577052      23.558237896249523
  6058   7      20.600701261199927      51.552358415455629      12.389374203903493
  6059   7      23.560701164843124       60.81356319721877      16.541087861564712
  6060   7      19.828264721510248      73.149079315159312      19.406469948999998
  6061   7      20.608246977145559      60.399793295988793      17.304491919534048
  6062   7      22.780626979091782      72.735093775764838      18.643170955291481
  6063   7      22.768989895922658      62.964510810979931      15.011395171585782
  6064   7      20.620089201542712      50.629174473076155      20.936298919264399
  6065   7      25.194053288828883      63.829835747611085      21.517253528327991
  6066   7      18.195073484515699      51.494519946291227      14.430375990639764
  6067   7      21.865674340592797      62.645988977943382      20.664252477766439
  6068   7       21.52329746587996      50.310539967693458      15.283320394967241
  6069   7      20.976770278353428      60.342818752452416      14.081104486164886
  6070   7      22.412192004563884      72.678101748956095      21.866552051633356
  6071   7      18.236804686111114        59.9927584335109       15.24230170613929
  6072   7      25.152231872158424      72.328027326111368      20.705402141704557
  6073   7      20.019605175747159      62.744395729330407      16.335859930164535
  6074   7      23.369435964425115      50.409223895447148      19.611740020404962
  6075   7      22.927229655943446      62.672987811043186      23.702037913897833
  6076   7      20.461748922638421      50.337580736469747      12.245563818666787
  6077   7      21.286654731761878      59.157034850467099      14.163105930650955
  6078   7      22.102277504344858      71.492320944483694      21.784569374064525
  6079   7      24.363010842713113      60.208575709395603      12.602484972374658
  6080   7      19.026030168780245      72.543910094394462      23.345159430586456
  6081   7       22.33187457104993      67.498538156262939      18.216007068571187
  6082   7      21.057122912392074      55.163092818543603      17.731601981231165
  6083   7      25.399462758345202      55.699739384230497      23.851537475080114
  6084   7      17.989532181353212      68.035180204728334      12.095881127729662
  6085   7      22.867447027416446      64.183558952434169      14.956170233455119
  6086   7      20.521686081758396      51.848223444366006      20.991566511000407
  6087   7      25.227977665868135      62.608661646310175      21.663161822793462
  6088   7      18.161059329556267      50.273359493108465      14.284341164656412
  6089   7       19.08630055851588      63.606077796504366      19.902284184560244
  6090   7       24.30274725288395      51.270776404454715      16.045303562402015
  6091   7      20.818695819734856      60.046825838268717      18.452610111326088
  6092   7      22.570279260174829      72.382213165757861       17.49501804496964
  6093   7      24.067071364317822      59.296564003636142      20.418872983690754
  6094   7      19.321960620719597      71.632007620050615      15.528645401025967
  6095   7       17.75576785088186      58.005632423152171      18.683704710699807
  6096   7      25.633385256973298      70.341058127398668      17.263961631828849
  6097   7      19.757725531478417      63.813159571471175      15.798966218786447
  6098   7      23.631310188491895      51.477972319603204       20.14868261463613
  6099   7      19.474043523521466      63.867954734183904      22.966693869623064
  6100   7      23.914998297018812      51.532420961397278      12.980918984777961
  6101   7      23.885233261858982      58.144982206005999      20.363254940667552
  6102   7      19.503562058556277      70.480387880856483      15.584135467166712
  6103   7      21.608968977365084      58.040184942918088      14.257563407564053
  6104   7      21.779904932046353       70.37547439738357      21.690241399890539
  6105   7      18.562034597013568      57.618312205128078      15.308677096691145
  6106   7      24.826715476663036      69.953613125298602      20.638927529158831
  6107   7      21.723436061083053      58.149329258667649      22.827036537431034
  6108   7      21.665576198639585      70.484657409914675      13.120917420181994
  6109   7       24.53574985236655      59.972857010918254      23.515684637040501
  6110   7      18.853077038266811      72.308183492558143      12.431863142250853
  6111   7      19.505476608123946      64.834628273399574      15.290680705362766
  6112   7      23.883399459193601       52.49953209476957      20.656885720867081
  6113   7      23.544611216858403      58.459505039173614      16.994884992292302
  6114   7      19.844634570677737      70.795017136541077      18.952703810450174
  6115   7       25.09211757618468      63.294304081210271      18.574537681202195
  6116   7      18.296983903681127      50.959210808469216        17.3731565706635
  6117   7      22.668952415429349      65.040671725066474      23.424848558998754
  6118   7      20.719950508509964      52.705269077191915      12.522726310135223
  6119   7      18.763039144796569       59.66663650563023      12.046100214941044
  6120   7      24.625860334174551      72.001998108120276      23.901444034754128
  6121   7       19.15982796447928      64.760227828429024       19.74801079963191
  6122   7      24.229246507640198      52.424937198251165      16.199576797268037
  6123   7      25.171785941069839      64.989368289722933      21.395477927003128
  6124   7      18.217400893871126      52.654030693354329      14.552317732154293
  6125   6        18.1529015785786      55.156581546197231      12.394696497034056
  6126   6      25.236076277914147      67.491992694216805       23.55278787368615
  6127   1      18.001452762331223      54.981491309371563      13.462480462340826
  6128   1      25.387504693379917      67.317075042115533      22.484982075123433
  6129   1      18.053154692443467      54.177250046622191      23.915263737545921
  6130   1      25.335886283614915        66.5126290521128      12.032178402557193
  6131   7      25.851306689470402       64.26568429849118      12.788365144285889
  6132   7      17.537678734958273      51.930341639218312      23.159385877251811
  6133   6      19.810953418637293       67.49552223220121      17.746462775778063
  6134   6      23.578087698177693      55.159920622188935      18.200724145929936
  6135   1      19.843165751640882      68.465906319364066      17.242147451157667
  6136   1      23.545937594895928      56.130461638610129      18.704767636231036
  6137   1      19.472413349983977      67.645049024722468      18.775981007790325
  6138   1      23.916447605222118      55.309068100459257      17.171090697166509
  6139   1      19.058223066363528      66.880206996371328      17.240020276512169
  6140   1      24.330879829891266      54.544698411186687       18.70719774025472
  6141   6      19.350091447044264      56.056715459682174      12.151070280382134
  6142   6      24.038948092378323      68.392117319428309      23.796471264151691
  6143   1      19.407301927791259      56.076691786141275      23.083003613986985
  6144   1      23.981848696329699      68.412285282444643       12.86454468871794
  6145   1      20.189727349786434      55.651811396465064      12.725882242858905
  6146   1      23.199211616700033      67.987178930289389      23.221855644400236
  6147   1      19.193184185588358      57.084773027535377      12.489076556313298
  6148   1      24.195840705167747      69.420079298727501      23.458244672431704
  6149   6      22.551591529368274       68.79591095400535      17.438883051664455
  6150   6      20.837489496325631      56.460478610694793      18.508800225105578
  6151   1      21.766820993340577       69.48483943861217      17.768116615851778
  6152   1      21.622159214043663      57.149499601891286      18.179493809978229
  6153   1      23.506762443782112        69.1988572723684       17.78710198998828
  6154   1      19.882239257404702      56.863487134090633       18.16079961696839
  6155   6      22.129166943968471      67.905958450155168      19.668496110389363
  6156   6      21.259724037283121      55.570507034615723      16.279132571583169
  6157   1      21.256724410346422      68.565836866685927      19.683464516382813
  6158   1      22.132014575642486      56.230598280046763      16.264129792591529
  6159   1      22.993029418856807       68.52185052500343      19.935964491388088
  6160   1      20.395684294370394      56.186169590606703      16.011845156066386
  6161   6       24.82578989808173      67.059676870814968      18.697365961158443
  6162   6      18.563198662251793      54.724091158081251      17.250229715560806
  6163   1      25.158564268034723      68.021873862144218      18.298016929261955
  6164   1       18.23010650645908       55.68599449152638      17.649926507719169
  6165   1      25.599290830883717      66.312973626876683      18.477661584528629
  6166   1       17.78984665709217      53.977212398018473      17.469809369230703
  6167   1       24.75815050686067      67.133518673748156      19.785790768335328
  6168   1      18.630989303718156      54.798364665060006      16.161833650811779
  6169   7      23.001165150317359      65.345619216061905      14.860832633785314
  6170   7      20.388070055304627      53.010300392571985      21.086914795673565
  6171   6      21.124567407328716      66.739401078624994      17.674782562367788
  6172   6       22.26443392153724       54.40390875555206       18.27275439806683
  6173   1      21.374878453596427      66.472714393938048      16.643695599521049
  6174   1      22.014379022947445      54.137318556239443      19.303941366142613
  6175   1      21.066687494285073      65.805291848427686      18.240237163115474
  6176   1      22.322147836975731      53.469738473329542      17.707374257105659
  6177   6      23.535025815979161      66.565598743325012      18.070124315534947
  6178   6      19.853962144114465      54.230169453302949      17.877503597254272
  6179   1      23.235689229712193      65.607283665764413      18.506962997393767
  6180   1       20.15326708617868      53.271853601781636      17.440685335465698
  6181   1      23.654701536442765      66.394601253775875      16.995883629544853
  6182   1      19.734190370543242      54.059270509423207      18.951757395642495
  6183   6      23.042068427334247      54.897899296516393      23.288983959667341
  6184   6      20.346858853214545      67.233300089431935      12.658635576776067
  6185   1      23.054144776712619      54.987293137159149      22.198517569110585
  6186   1      20.334411599118923      67.322633869153236      13.749103548539516
  6187   1      22.640926030539273      55.826548954897184      23.706179937225947
  6188   1      20.748074157810784      68.161933891187118      12.241521933856273
  6189   1      22.343491548521051      54.090670904098133      23.539814138188945
  6190   1      21.045387198319883      66.425946780041926       12.40800559006637
  6191   6      24.410616183851715      54.538847049383875      23.836758769123733
  6192   6      18.978372850839445      66.874293555587528      12.110668443570122
  6193   1      24.605101959708868      54.162780291284733      12.880412723333757
  6194   1      18.783982543072838       66.49821796009364      23.067004392570837
  6195   1      24.870774415556479      53.746739279945658      23.241615051183132
  6196   1      18.518274949118869       66.08220535948189       12.70589061130252
  6197   6      21.963003750708094      66.747655695768088       20.63226681405142
  6198   6       21.42595766917978      54.412276451587985      15.315373788107456
  6199   1      21.074577080577615      66.142638716103932      20.426573163469801
  6200   1      22.314572302169545      53.807515462767256      15.520830821509293
  6201   1      21.844470682998647      67.165066379605364       21.63846617692483
  6202   1      21.544286391308241      54.829763634141599      14.309230489955747
  6203   1      22.841140665925554      66.095714871081327      20.667456540377771
  6204   1      20.548007685170329      53.760099593637989      15.280230025987633
  6205   6      25.558015349959746      56.291873378441238      22.461032880459808
  6206   6        17.8310340293352      68.627446281008915      13.486334914620036
  6207   1      17.416017602069665      57.139722372527309      22.564085861322084
  6208   1      25.972908952354459      69.475174627502568      13.383145135501017
  6209   1       24.58503336422741      56.705761039649978      22.181118348844961
  6210   1       18.80405439824942      69.041316267845971       13.76617938690509
  6211   6       17.21708712325341      55.307483837258914      21.411798882103771
  6212   6      26.172035773042655      67.643146794344744      14.535667654093277
  6213   1      17.386981201896781      55.873559512927159      20.486999040924619
  6214   1      26.001934108016165      68.209216983428917      15.460438408255641
  6215   1      25.303676657877137      54.528645220394552       21.19946747654776
  6216   1      18.085573069552989      66.864431861171084      14.747964003311074
  6217   1      18.157569991846181      54.820555421538209      21.690479681515782
  6218   1      25.231704403019481      67.155950743643913      14.256993665428833
  6219   6      22.536404196853354      68.650006844062062      15.928838801924357
  6220   6      20.852912307918846      56.314505776456286      20.018904865114944
  6221   1      21.524144957489717      68.504338439265666      15.541073428310694
  6222   1      21.865170971884528      56.168407429757906       20.40660739627242
  6223   1      23.169869300665862      67.834136231214629      15.574845070593881
  6224   1      20.219156511564996      55.498789255666892      20.372828998364831
  6225   1      22.915025660702906      69.583110900534933      15.497543323723274
  6226   1      20.474688608682435      57.247695974287225      20.450413918043992
  6227   6      25.151295087624444      56.824716732094998      12.779935477549479
  6228   6      18.237766681587157      69.160129562648933       23.16744677916622
  6229   1      25.996591451720874      57.508557032805534      12.900730470175636
  6230   1      17.392505245156514      69.843979003851217      23.046595114800962
  6231   1      24.375345446891917      57.357977618638628      12.221659195560976
  6232   1      19.013715383984735      69.693409300906197      23.725711611174454
  6233   6      24.615065095759356      56.358015244981921       14.12035730768223
  6234   6      18.773932523706222       68.69335765778915       21.82703406364114
  6235   1      23.655717011017394      55.845846423247991      14.009606104463323
  6236   1      19.733282911770445      68.181202937788896      21.937795754024908
  6237   1      24.445314495443416      57.237494461481944      14.752338917581362
  6238   1      18.943652180773263      69.572760403711698      21.194923389130523
  6239   1      25.311214405372301      55.703728568919878      14.653738399280925
  6240   1      18.077681051156549        68.0390305101499      21.293838805009642
  6241  29      21.921961838579698      61.735967605213752      25.180752911991483
  6242  29      20.973992841918584      49.400636059882864      34.731865718283515
  6243  29       18.86322040043823      61.044137707195461      25.669848624912575
  6244  29      24.032584876012194      73.379485457367167      34.242765954251091
  6245  29      23.236556535288777      61.578343657861019       34.03846170566684
  6246  29      19.659387375407839      73.913790633266316       25.87420025382777
  6247  29      24.606906687195156      61.472970832381911      27.093721423803874
  6248  29       18.28892113270404      73.808382882408466      32.819020250152661
  6249  29      25.740194075582039      61.468740403222604      32.131497930412948
  6250  29      17.155910906284795      73.804311334846304      27.781369572579351
  6251  29      20.121370788824812      61.341376140242645      33.098623693413593
  6252  29      22.774559828559347      73.676705529029391      26.814164785940918
  6253  29      18.491051356261995      61.293903192423755      28.935591594335058
  6254  29       24.40491925763051      73.629264196270952       30.97719763001712
  6255  29      21.605143978656848       61.93768556540163      28.526534953105749
  6256  29      21.290763353646298      49.602341097055643      31.386041140409848
  6257   7      25.692354325543761      62.504066614037846      28.464236368513934
  6258   7      17.203698570573305      50.168807952318474      31.448480955688837
  6259   7       25.21410755760445      62.921851696372848      29.510066478708698
  6260   7      17.681897728901671      50.586629535438476      30.402657398674371
  6261   7      21.807550769337951      62.874000890813903      31.469989368586774
  6262   7      21.088327806811012      50.538640614913326      28.442628477929262
  6263   7      18.425334317818447      59.966856952155226      34.875774342923251
  6264   7      24.470465690563497      72.302205436743193      25.036834295890401
  6265   7       21.44766266620308      60.507729718107157      34.381214070712986
  6266   7      21.448227663790561      72.843120139390535      25.531445866072477
  6267   7      23.576323941652607      60.489254952344204      25.644141341258095
  6268   7      19.319678878000694      72.824648256423416      34.268605525904164
  6269   7      20.048035100933578      62.527005024923788      24.868720483543623
  6270   7      22.847738399996462       50.19145770998329         35.044030972087
  6271   7      17.494537400911874      59.171122859594817      30.585170393076364
  6272   7      25.401475672981825      71.506569195225552      29.327476826684205
  6273   7      21.455358480677688      59.293651713778644      34.572099595713851
  6274   7      21.440479796149681      71.629014820670108      25.340717949781364
  6275   7      22.021119257379439      63.145489236190258      30.340033778821379
  6276   7      20.874841892858374      50.810187240271254       29.57258485936083
  6277   7      18.756414003218005      62.385061564641134      32.006030311176701
  6278   7      24.139544917921643       50.04977045396496      27.906579803472507
  6279   7      23.969211836049496      60.515973946777152      32.444998953562468
  6280   7      18.926819526196951      72.851432098498975      27.467669015364148
  6281   7       18.17018029343269      58.781376157505562      27.262260410182638
  6282   7      24.725595056825533      71.116662298957209       32.65046453037796
  6283   7       18.54168187600645      60.232801319851653      33.703784724174533
  6284   7      24.354216731031499      72.568155561153389      26.208829323333983
  6285   7      17.133810308206947      62.090040934455139      25.701825610312387
  6286   7      25.761950004246408      49.754721536528756      34.210953796064771
  6287   7      23.296104983466108      59.605202772456771      28.745078376732561
  6288   7      19.599924600297282      71.940731135860347      31.167481250907461
  6289   7      19.503629242744228       63.20322740472848      35.870742921496628
  6290   7      23.392176384881246      50.867663146250329      24.041986247250936
  6291   7       17.48063358241772      60.397534186508764      30.490477617074426
  6292   7      25.415324094418978      72.733001040443327      29.422204375809205
  6293   7       20.76129746581212      59.709028576459559      31.544933267083003
  6294   7      22.134700617237883      72.044434164246013      28.367713305018647
  6295   7      25.797126343914474      63.208655698902049      25.225721672195384
  6296   7      17.098718861316613      50.873316296231529      34.687079986881727
  6297   7      22.541663448092777      63.887763597797758       35.54076565172263
  6298   7      20.354139824898176      51.552356835676335      24.371901959376601
  6299   7       23.31413972854137      60.813561617439476      28.523615617037816
  6300   7      19.581703285208498      73.149077735380018      31.388997704473105
  6301   7      20.361685540843808      60.399791716209499      29.287019675007151
  6302   7      22.534065542790032      72.735092195985544      30.625698710764588
  6303   7      22.522428459620908      62.964509231200637       26.99392292705889
  6304   7      20.373527765240961      50.629172893296861      32.918826674737502
  6305   7      24.947491852527133      63.829834167831791      33.499781283801099
  6306   7      17.948512048213949      51.494518366511933      26.412903746112868
  6307   7      21.619112904291047      62.645987398164088      32.646780233239539
  6308   7       21.27673602957821      50.310538387914164      27.265848150440345
  6309   7      20.730208842051674      60.342817172673122       26.06363224163799
  6310   7      22.165630568262134      72.678100169176815      33.849079807106463
  6311   7      17.990243249809364      59.992756853731606      27.224829461612394
  6312   7      24.905670435856674      72.328025746332074      32.687929897177661
  6313   7      19.773043739445409      62.744394149551113      28.318387685637639
  6314   7      23.122874528123365      50.409222315667854      31.594267775878066
  6315   7      22.680668219641696      62.672986231263891       35.68456566937094
  6316   7      20.215187486336671      50.337579156690452      24.228091574139892
  6317   7      21.040093295460125      59.157033270687805      26.145633686124061
  6318   7      21.855716068043108        71.4923193647044      33.767097129537632
  6319   7      24.116449406411363      60.208574129616309      24.585012727847765
  6320   7      18.779468732478495      72.543908514615168      35.327687186059563
  6321   7       22.08531313474818      67.498536576483644      30.198534824044291
  6322   7      20.810561476090324      55.163091238764309      29.714129736704269
  6323   7      25.152901322043448      55.699737804451203      35.834065230553222
  6324   7      17.742970745051462      68.035178624949026      24.078408883202766
  6325   7      22.620885591114696      64.183557372654874      26.938697988928222
  6326   7      20.275124645456646      51.848221864586712      32.974094266473514
  6327   7      24.981416229566385      62.608660066530881       33.64568957826657
  6328   7      17.914497893254516      50.273357913329171      26.266868920129518
  6329   7       18.83973912221413      63.606076216725072      31.884811940033348
  6330   7        24.0561858165822      51.270774824675421      28.027831317875119
  6331   7      20.572134383433106      60.046824258489423      30.435137866799195
  6332   7      22.323717823873078      72.382211585978567      29.477545800442748
  6333   7      23.820509928016072      59.296562423856848      32.401400739163861
  6334   7      19.075399184417847      71.632006040271321      27.511173156499073
  6335   7       17.50920641458011      58.005630843372877      30.666232466172914
  6336   7      25.386823820671548      70.341056547619374      29.246489387301953
  6337   7      19.511164095176667      63.813157991691881      27.781493974259554
  6338   7      23.384748752190145       51.47797073982391       32.13121037010923
  6339   7      19.227482087219716       63.86795315440461      34.949221625096172
  6340   7      23.668436860717062      51.532419381617984      24.963446740251069
  6341   7      23.638671825557232      58.144980626226705       32.34578269614066
  6342   7      19.257000622254527      70.480386301077189      27.566663222639818
  6343   7      21.362407541063334      58.040183363138794      26.240091163037157
  6344   7      21.533343495744603      70.375472817604276      33.672769155363646
  6345   7      18.315473160711818      57.618310625348784      27.291204852164249
  6346   7      24.580154040361286      69.953611545519308      32.621455284631935
  6347   7      21.476874624781303      58.149327678888355      34.809564292904142
  6348   7      21.419014762337834      70.484655830135381        25.1034451756551
  6349   7      24.289188416064803       59.97285543113896      35.498212392513608
  6350   7      18.606515601965061      72.308181912778849      24.414390897723958
  6351   7      19.258915171822196       64.83462669362028      27.273208460835871
  6352   7      23.636838022891851      52.499530514990276      32.639413476340181
  6353   7      23.298049780556653       58.45950345939432      28.977412747765406
  6354   7      19.598073134375987      70.795015556761768      30.935231565923281
  6355   7       24.84555613988293      63.294302501430977      30.557065436675302
  6356   7      18.050422467379377      50.959209228689922      29.355684326136608
  6357   7      22.422390979127599       65.04067014528718      35.407376314471861
  6358   7      20.473389072208214      52.705267497412621      24.505254065608327
  6359   7      18.516477708494818      59.666634925850936      24.028627970414149
  6360   7        24.3792988978728      72.001996528340982      35.883971790227235
  6361   7       18.91326652817753       64.76022624864973      31.730538555105014
  6362   7      23.982685071338452      52.424935618471871      28.182104552741144
  6363   7      24.925224504768089      64.989366709943639      33.378005682476235
  6364   7      17.970839457569376      52.654029113575035        26.5348454876274
  6365   6      17.906340142276846      55.156579966417937      24.377224252507162
  6366   6      24.989514841612397      67.491991114437511      35.535315629159257
  6367   1      17.754891326029473      54.981489729592269      25.445008217813932
  6368   1      25.140943257078167      67.317073462336225      34.467509830596541
  6369   1      17.806593256141717      54.177248466842897      35.897791493019028
  6370   1      25.089324847313165      66.512627472333492      24.014706158030297
  6371   7      25.604745253168652      64.265682718711901      24.770892899758994
  6372   7      17.291117298656523      51.930340059439018      35.141913632724915
  6373   6      19.564391982335543      67.495520652421931      29.728990531251171
  6374   6      23.331526261875943      55.159919042409641       30.18325190140304
  6375   1      19.596604315339135      68.465904739584772      29.224675206630774
  6376   1      23.299376158594178      56.130460058830835       30.68729539170414
  6377   1      19.225851913682227      67.645047444943174      30.758508763263432
  6378   1      23.669886168920364      55.309066520679963      29.153618452639616
  6379   1      18.811661630061778      66.880205416592034      29.222548031985276
  6380   1       24.08431839358952      54.544696831407393      30.689725495727824
  6381   6       19.10353001074251       56.05671387990288       24.13359803585524
  6382   6      23.792386656076573      68.392115739649029      35.778999019624791
  6383   1      19.160740491489509      56.076690206361981      35.065531369460089
  6384   1      23.735287260027949      68.412283702665349      24.847072444191046
  6385   1      19.943165913484684       55.65180981668577      24.708409998332012
  6386   1      22.952650180398283      67.987177350510095      35.204383399873343
  6387   1      18.946622749286608      57.084771447756083      24.471604311786404
  6388   1         23.949279268866      69.420077718948207      35.440772427904804
  6389   6      22.305030093066524      68.795909374226056      29.421410807137558
  6390   6      20.590928060023881      56.460477030915499      30.491327980578681
  6391   1      21.520259557038827      69.484837858832876      29.750644371324885
  6392   1      21.375597777741913      57.149498022111992      30.162021565451333
  6393   1      23.260201007480362      69.198855692589092      29.769629745461387
  6394   1      19.635677821102952      56.863485554311339      30.143327372441497
  6395   6      21.882605507666717      67.905956870375888      31.651023865862467
  6396   6      21.013162600981371      55.570505454836429      28.261660327056273
  6397   1      21.010162974044672      68.565835286906633      31.665992271855917
  6398   1      21.885453139340736      56.230596700267469      28.246657548064633
  6399   1      22.746467982555057      68.521848945224136      31.918492246861192
  6400   1      20.149122858068644      56.186168010827409      27.994372911539489
  6401   6       24.57922846177998      67.059675291035688      30.679893716631547
  6402   6      18.316637225950043      54.724089578301957      29.232757471033914
  6403   1       24.91200283173297      68.021872282364924      30.280544684735059
  6404   1       17.98354507015733      55.685992911747086      29.632454263192272
  6405   1      25.352729394581967      66.312972047097389      30.460189340001737
  6406   1       17.54328522079042      53.977210818239179      29.452337124703806
  6407   1      24.511589070558919      67.133517093968862      31.768318523808432
  6408   1      18.384427867416406      54.798363085280712      28.144361406284887
  6409   7      22.754603714015609      65.345617636282611      26.843360389258422
  6410   7      20.141508619002877      53.010298812792691      33.069442551146672
  6411   6      20.878005971026965        66.7393994988457      29.657310317840896
  6412   6       22.01787248523549      54.403907175772765      30.255282153539934
  6413   1      21.128317017294677      66.472712814158754      28.626223354994156
  6414   1      21.767817586645695      54.137316976460149      31.286469121615717
  6415   1      20.820126057983323      65.805290268648392      30.222764918588581
  6416   1      22.075586400673981      53.469736893550248      29.689902012578766
  6417   6      23.288464379677411      66.565597163545718      30.052652071008055
  6418   6      19.607400707812715      54.230167873523655      29.860031352727379
  6419   1      22.989127793410447      65.607282085985119      30.489490752866875
  6420   1       19.90670564987693      53.271852022002342      29.423213090938802
  6421   1      23.408140100141011      66.394599673996581       28.97841138501796
  6422   1      19.487628934241492      54.059268929643913      30.934285151115603
  6423   6      22.795506991032497      54.897897716737099      35.271511715140448
  6424   6      20.100297416912795      67.233298509652641      24.641163332249171
  6425   1      22.807583340410869      54.987291557379855      34.181045324583692
  6426   1      20.087850162817173      67.322632289373942      25.731631304012623
  6427   1      22.394364594237523       55.82654737511789      35.688707692699055
  6428   1      20.501512721509034       68.16193231140781      24.224049689329377
  6429   1      22.096930112219301      54.090669324318839      35.522341893662052
  6430   1      20.798825762018133      66.425945200262632      24.390533345539474
  6431   6      24.164054747549962      54.538845469604581      35.819286524596841
  6432   6      18.731811414537695      66.874291975808234      24.093196199043227
  6433   1      24.358540523407118      54.162778711505439      24.862940478806863
  6434   1      18.537421106771088      66.498216380314346      35.049532148043937
  6435   1      24.624212979254729      53.746737700166364      35.224142806656232
  6436   1      18.271713512817119      66.082203779702596      24.688418366775625
  6437   6      21.716442314406343      66.747654115988809       32.61479456952452
  6438   6       21.17939623287803      54.412274871808691      27.297901543580561
  6439   1      20.828015644275865      66.142637136324637      32.409100918942904
  6440   1      22.068010865867794      53.807513882987962        27.5033585769824
  6441   1      21.597909246696901      67.165064799826069      33.620993932397937
  6442   1       21.29772495500649      54.829762054362305      26.291758245428852
  6443   1      22.594579229623804      66.095713291302047      32.649984295850878
  6444   1      20.301446248868579      53.760098013858695      27.262757781460738
  6445   6      25.311453913657999      56.291871798661944      34.443560635932911
  6446   6       17.58447259303345      68.627444701229621      25.468862670093142
  6447   1      17.169456165767915      57.139720792748015      34.546613616795192
  6448   1      25.726347516052709      69.475173047723274      25.365672890974121
  6449   1       24.33847192792566      56.705759459870684      34.163646104318062
  6450   1       18.55749296194767      69.041314688066677      25.748707142378194
  6451   6       16.97052568695166       55.30748225747962      33.394326637576874
  6452   6      25.925474336740905       67.64314521456545      26.518195409566385
  6453   1      17.140419765595031      55.873557933147865      32.469526796397723
  6454   1      25.755372671714419      68.209215403649623      27.442966163728745
  6455   1      25.057115221575387      54.528643640615257      33.181995232020867
  6456   1      17.839011633251239      66.864430281391776      26.730491758784179
  6457   1      17.911008555544431      54.820553841758915       33.67300743698889
  6458   1      24.985142966717731      67.155949163864619      26.239521420901941
  6459   6      22.289842760551604      68.650005264282768      27.911366557397464
  6460   6      20.606350871617096      56.314504196676992      32.001432620588048
  6461   1      21.277583521187967      68.504336859486372        27.5236011837838
  6462   1      21.618609535582777      56.168405849978612      32.389135151745521
  6463   1      22.923307864364112      67.834134651435335      27.557372826066985
  6464   1      19.972595075263246      55.498787675887598      32.355356753837938
  6465   1      22.668464224401156      69.583109320755639      27.480071079196378
  6466   1      20.228127172380681      57.247694394507931      32.432941673517099
  6467   6      24.904733651322694      56.824715152315704      24.762463233022583
  6468   6      17.991205245285407      69.160127982869625      35.149974534639327
  6469   1      25.750030015419121       57.50855545302624      24.883258225648742
  6470   1      17.145943808854764      69.843977424071909      35.029122870274065
  6471   1      24.128784010590167      57.357976038859334      24.204186951034082
  6472   1      18.767153947682985      69.693407721126903      35.708239366647561
  6473   6      24.368503659457602      56.358013665202627      26.102885063155334
  6474   6      18.527371087404472      68.693356078009856      33.809561819114244
  6475   1      23.409155574715644      55.845844843468697      25.992133859936427
  6476   1      19.486721475468695      68.181201358009602      33.920323509498012
  6477   1      24.198753059141666       57.23749288170265      26.734866673054466
  6478   1      18.697090744471513      69.572758823932418       33.17745114460363
  6479   1      25.064652969070551      55.703726989140584      26.636266154754029
  6480   1      17.831119614854799      68.039028930370606      33.276366560482742
  6481  29      31.240830364533224      12.394432086166814      1.2156974010452735
  6482  29       30.29286136787211    0.059100540835926106      10.766810207337304
  6483  29      28.182088926391756      11.702602188148525      1.7047931139663628
  6484  29      33.351453401965721      24.037949938320235      10.277710443304878
  6485  29      32.555425061242303      12.236808138814082      10.073406194720627
  6486  29      28.978255901361365      24.572255114219377      1.9091447428815596
  6487  29      33.925775213148682      12.131435313334975       3.128665912857663
  6488  29      27.607789658657566      24.466847363361527      8.8539647392064484
  6489  29      35.059062601535565      12.127204884175669      8.1664424194667404
  6490  29      26.474779432238321      24.462775815799368      3.8163140616331384
  6491  29      29.440239314778339      11.999840621195712      9.1335681824673802
  6492  29      32.093428354512874      24.335170009982455      2.8491092749947078
  6493  29      27.809919882215521       11.95236767337682       4.970536083388847
  6494  29      33.723787783584037       24.28772867722402      7.0121421190709086
  6495  29      30.924012504610374      12.596150046354696      4.5614794421595377
  6496  29      30.609631879599824     0.26080557800870857      7.4209856294636376
  6497   7      35.011222851497287      13.162531094990909      4.4991808575677226
  6498   7      26.522567096526831     0.82727243327153765      7.4834254447426245
  6499   7      34.532976083557976      13.580316177325914      5.5450109677624866
  6500   7      27.000766254855197      1.2450940163915383      6.4376018877281602
  6501   7      31.126419295291477      13.532465371766971      7.5049338576405642
  6502   7      30.407196332764538      1.1971050958663902      4.4775729669830495
  6503   7      27.744202843771973      10.625321433108287      10.910718831977039
  6504   7      33.789334216517027      22.960669917696254      1.0717787849441902
  6505   7      30.766531192156606      11.166194199060223      10.416158559766773
  6506   7      30.767096189744088      23.501584620343596       1.566390355126267
  6507   7      32.895192467606137       11.14771943329727       1.679085830311885
  6508   7       28.63854740395422      23.483112737376487      10.303550014957949
  6509   7      29.366903626887105      13.185469505876853     0.90366497259741219
  6510   7      32.166606925949985     0.84992219093635613      11.078975461140789
  6511   7        26.8134059268654       9.829587340547878      6.6201148821301521
  6512   7      34.720344198935351      22.165033676178609      5.3624213157379943
  6513   7      30.774227006631214      9.9521161947317083      10.607044084767642
  6514   7      30.759348322103207      22.287479301623179      1.3756624388351535
  6515   7      31.339987783332965      13.803953717143322       6.374978267875167
  6516   7        30.1937104188119      1.4686517212243198      5.6075293484146211
  6517   7      28.075282529171531      13.043526045594195      8.0409748002304884
  6518   7      33.458413443875166     0.70823493491802303      3.9415242925262959
  6519   7      33.288080362003022       11.17443842773022      8.4799434426162552
  6520   7      28.245688052150477      23.509896579452032      3.5026135044179361
  6521   7      27.489048819386216      9.4398406384586231      3.2972048992364256
  6522   7      34.044463582779059       21.77512677991027      8.6854090194317504
  6523   7      27.860550401959976      10.891265800804716      9.7387292132283196
  6524   7      33.673085256985026      23.226620042106454      2.2437738123877731
  6525   7      26.452678834160473      12.748505415408202      1.7367700993661772
  6526   7      35.080818530199934      0.4131860174818171      10.245898285118564
  6527   7      32.614973509419634      10.263667253409833      4.7800228657863491
  6528   7      28.918793126250808      22.599195616813418      7.2024257399612486
  6529   7      28.822497768697755      13.861691885681548      11.905687410550415
  6530   7      32.711044910834772      1.5261276272033957    0.076930736304725078
  6531   7      26.799502108371247      11.055998667461829      6.5254221061282127
  6532   7      34.734192620372504      23.391465521396388      5.4571488648629929
  6533   7      30.080165991765647       10.36749305741262      7.5798777561367912
  6534   7      31.453569143191409       22.70289864519907      4.4026577940724367
  6535   7      35.115994869868004       13.86712017985511      1.2606661612491736
  6536   7      26.417587387270139      1.5317807771845922       10.72202447593552
  6537   7      31.860531974046303       14.54622807875082      11.575710140776419
  6538   7      29.673008350851703      2.2108213166293993     0.40684644843038786
  6539   7      32.633008254494897      11.472026098392538      4.5585601060916048
  6540   7      28.900571811162024      23.807542216333086      7.4239421935268934
  6541   7      29.680554066797335      11.058256197162565      5.3219641640609412
  6542   7      31.852934068743558      23.393556676938612      6.6606431998183764
  6543   7      31.841296985574434      13.622973712153703      3.0288674161126767
  6544   7      29.692396291194488      1.2876373742499221      8.9537711637912931
  6545   7      34.266360378480655      14.488298648784859      9.5347257728548875
  6546   7      27.267380574167476      2.1529828474649992      2.4478482351666573
  6547   7      30.937981430244573      13.304451879117154      8.6817247222933318
  6548   7      30.595604555531736     0.96900286886722975      3.3007926394941349
  6549   7        30.0490773680052       11.00128165362619      2.0985767306917804
  6550   7      31.484499094215661      23.336564650129873      9.8840242961602485
  6551   7       27.30911177576289      10.651221334684667       3.259773950666184
  6552   7      34.224538961810204      22.986490227285138      8.7228743862314513
  6553   7      29.091912265398935      13.402858630504177      4.3533321746914284
  6554   7      32.441743054076895      1.0676867966209214      7.6292122649318568
  6555   7      31.999536745595222      13.331450712216956      11.719510158424725
  6556   7      29.534056012290197     0.99604363764351944     0.26303606319368061
  6557   7      30.358961821413651      9.8154977516408675      2.1805781751778497
  6558   7      31.174584593996634      22.150783845657468       9.802041618591419
  6559   7      33.435317932364889      10.867038610569372     0.61995721690155225
  6560   7      28.098337258432021      23.202372995568236      11.362631675113349
  6561   7      31.404181660701706      18.157001057436705      6.2334793130980799
  6562   7      30.129430002043851      5.8215557197173764      5.7490742257580587
  6563   7      34.471769847996974      6.3582022854042641      11.869009719607009
  6564   7      27.061839271004988      18.693643105902098     0.11335337225655616
  6565   7      31.939754117068222      14.842021853607944      2.9736424779820125
  6566   7      29.593993171410172       2.506686345539777      9.0090387555273015
  6567   7      34.300284755519911      13.267124547483945      9.6806340673203568
  6568   7      27.233366419208043     0.93182239428223557      2.3018134091833065
  6569   7      28.158607648167656      14.264540697678134      7.9197564290871378
  6570   7      33.375054342535726      1.9292393056284876      4.0627758069289097
  6571   7      29.891002909386632      10.705288739442491      6.4700823558529832
  6572   7      31.642586349826605      23.040676066931635      5.5124902894965349
  6573   7      33.139378453969599      9.9550269048099107      8.4363452282176503
  6574   7      28.394267710371373      22.290470521224389       3.546117645552862
  6575   7      26.828074940533636      8.6640953243259435      6.7011769552267015
  6576   7      34.705692346625071      20.999521028572442      5.2814338763557416
  6577   7      28.830032621130194      14.471622472644942      3.8164384633133417
  6578   7      32.703617278143675       2.136435220776975      8.1661548591630222
  6579   7      28.546350613173242      14.526417635357674      10.984166114149959
  6580   7      32.987305386670592      2.1908838625710487     0.99839122930485635
  6581   7      32.957540351510758      8.8034451071797672      8.3807271851944467
  6582   7      28.575869148208053       21.13885078203025      3.6016077116936072
  6583   7       30.68127606701686      8.6986478440918553      2.2750356520909465
  6584   7      30.852212021698129      21.033937298557337       9.707713644417435
  6585   7      27.634341686665344      8.2767751063018515      3.3261493412180396
  6586   7      33.899022566314812      20.612076026472369      8.6563997736857257
  6587   7      30.795743150734829      8.8077921598414211      10.844508781957927
  6588   7      30.737883288291361      21.143120311088445      1.1383896647088887
  6589   7      33.608056942018329      10.631319912092026      11.533156881567393
  6590   7      27.925384127918587      22.966646393731917     0.44933538677774715
  6591   7      28.577783697775722      15.493091174573344        3.30815294988966
  6592   7      32.955706548845377      3.1579949959433438      8.6743579653939733
  6593   7      32.616918306510179      9.1179679403473859      5.0123572368191969
  6594   7      28.916941660329513       21.45348003771484      6.9701760549770704
  6595   7      34.164424665836457      13.952766982384045      6.5920099257290907
  6596   7      27.369290993332903       1.617673709642989      5.3906288151903956
  6597   7      31.741259505081125      15.699134626240241      11.442320803525647
  6598   7       29.79225759816174      3.3637319783656818     0.54019855466211697
  6599   7      27.835346234448345      10.325099406804002    0.063572459467938755
  6600   7      33.698167423826327      22.660461009294043      11.918916279281023
  6601   7      28.232135054131057      15.418690729602799      7.7654830441588034
  6602   7      33.301553597291978      3.0834000994249364      4.2170490417949322
  6603   7      34.244093030721615      15.647831190896705      9.4129501715300243
  6604   7      27.289707983522902      3.3124935945281022      2.5697899766811876
  6605   6      27.225208668230373       5.815044447371001     0.41216874156095079
  6606   6      34.308383367565924      18.150455595390575      11.570260118213042
  6607   1      27.073759851982999      5.6399542105453371      1.4799527068677203
  6608   1      34.459811783031697      17.975537943289297      10.502454319650329
  6609   1      27.125461782095243      4.8357129477959591      11.932735982072813
  6610   1      34.408193373266691      17.171091953286563    0.049650647084087035
  6611   7      34.923613779122178      14.924147199664958     0.80583738881278266
  6612   7       26.60998582461005       2.588804540392081      11.176858121778706
  6613   6      28.883260508289069      18.153985133374988      5.7639350203049595
  6614   6       32.65039478782947      5.8183835233627033      6.2181963904568294
  6615   1      28.915472841292662      19.124369220537833      5.2596196956845622
  6616   1      32.618244684547705      6.7889245397838964      6.7222398807579298
  6617   1      28.544720439635753      18.303511925896238        6.79345325231722
  6618   1       32.98875469487389      5.9675310016330236      5.1885629416934043
  6619   1      28.130530156015304      17.538669897545098      5.2574925210390653
  6620   1      33.403186919543046      5.2031613123604581       6.724669984781614
  6621   6      28.422398536696036      6.7151783608559468     0.16854252490902921
  6622   6      33.111255182030099      19.050580220602086      11.813943508678584
  6623   1      28.479609017443035      6.7351546873150481       11.10047585851388
  6624   1      33.054155785981479      19.070748183618417      0.8820169332448351
  6625   1       29.26203443943821      6.3102742976388324     0.74335448738580023
  6626   1      32.271518706351813      18.645641831463156       11.23932788892713
  6627   1      28.265491275240134      7.7432359287091463     0.50654880084019216
  6628   1      33.268147794819527      20.078542199901271      11.475716916958596
  6629   6       31.62389861902005      19.454373855179121      5.4563552961913473
  6630   6      29.909796585977407      7.1189415118685595      6.5262724696324712
  6631   1      30.839128082992353      20.143302339785937      5.7855888603786729
  6632   1      30.694466303695439      7.8079625030650543      6.1969660545051228
  6633   1      32.579069533433888      19.857320173542163      5.8045742345151758
  6634   1      28.954546347056478       7.521950035264406      6.1782718614952854
  6635   6      31.201474033620244      18.564421351328946      7.6859683549162563
  6636   6      30.332031126934897       6.228969935789495      4.2966048161100616
  6637   1      30.329031499998198      19.224299767859694      7.7009367609097064
  6638   1      31.204321665294263      6.8890611812205309      4.2816020371184234
  6639   1      32.065336508508587      19.180313426177204      7.9534367359149813
  6640   1       29.46799138402217      6.8446324917804739      4.0293174005932784
  6641   6       33.89809698773351      17.718139771988746      6.7148382056853375
  6642   6      27.635505751903569      5.3825540592550229      5.2677019600877015
  6643   1      34.230871357686496      18.680336763317992      6.3154891737888477
  6644   1      27.302413596110856      6.3444573927001517      5.6673987522460632
  6645   1       34.67159792053549      16.971436528050454      6.4951338290555247
  6646   1      26.862153746743946      4.6356752991922443      5.4872816137575953
  6647   1      33.830457596512446      17.791981574921923      7.8032630128622218
  6648   1      27.703296393369932      5.4568275662337777      4.1793058953386746
  6649   7      32.073472239969135      16.004082117235679      2.8783048783122096
  6650   7      29.460377144956404      3.6687632937457555      9.1043870402004607
  6651   6      30.196874496980492      17.397863979798768      5.6922548068946845
  6652   6      31.336741011189016      5.0623716567258317      6.2902266425937228
  6653   1      30.447185543248203      17.131177295111822      4.6611678440479443
  6654   1      31.086686112599221      4.7957814574132129      7.3214136106695067
  6655   1      30.138994583936849       16.46375474960146       6.257709407642368
  6656   1      31.394454926627507      4.1282013745033135      5.7248465016325545
  6657   6      32.607332905630933      17.224061644498779      6.0875965600618427
  6658   6      28.926269233766241      4.8886323544767158      5.8949758417811671
  6659   1      32.307996319363973      16.265746566938184      6.5244352419206626
  6660   1      29.225574175830456      3.9303165029554052      5.4581575799925917
  6661   1      32.727008626094538      17.053064154949649      5.0133558740717481
  6662   1      28.806497460195018      4.7177334105969795      6.9692296401693898
  6663   6      32.114375516986023      5.5563621976901656      11.306456204194236
  6664   6      29.419165942866321      17.891762990605702     0.67610782130296165
  6665   1      32.126451866364398      5.6457560383329186       10.21598981363748
  6666   1      29.406718688770699       17.98109677032701      1.7665757930664105
  6667   1      31.713233120191049      6.4850118560709529      11.723652181752843
  6668   1       29.82038124746256      18.820396792360881     0.25899417838316663
  6669   1      31.415798638172827      4.7491338052719039      11.557286382715841
  6670   1      30.117694287971659      17.084409681215693     0.42547783459326416
  6671   6      33.482923273503488      5.1973099505576448      11.854231013650629
  6672   6      28.050679940491221      17.532756456761298      0.1281406880970157
  6673   1      33.677409049360648      4.8212431924585024     0.89788496786065197
  6674   1      27.856289632724614      17.156680861267414       11.08447663709773
  6675   1      33.943081505208255      4.4052021811194315      11.259087295710025
  6676   1      27.590582038770645      16.740668260655664     0.72336285582941362
  6677   6       31.03531084035987      17.406118596941866      8.6497390585783123
  6678   6      30.498264758831557      5.0707393527617555      3.3328460326343503
  6679   1      30.146884170229391      16.801101617277705      8.4440454079966951
  6680   1      31.386879391821321      4.4659783639410282      3.5383030660361872
  6681   1      30.916777772650427       17.82352928077913      9.6559384214517223
  6682   1      30.616593480960017      5.4882265353153734      2.3267027344826414
  6683   1       31.91344775557733      16.754177772255105       8.684928784904665
  6684   1      29.620314774822106      4.4185624948117628      3.2977022705145274
  6685   6      34.630322439611525      6.9503362796150077      10.478505124986702
  6686   6      26.903341118986976      19.285909182182682      1.5038071591469302
  6687   1      26.488324691721441      7.7981852737010824      10.581558105848979
  6688   1      35.045216042006231      20.133637528676338      1.4006173800279111
  6689   1      33.657340453879186      7.3642239408237486      10.198590593371854
  6690   1      27.876361487901196      19.699779169019745      1.7836516314319844
  6691   6      26.289394212905187      5.9659467384326881       9.429271126630665
  6692   6      35.244342862694431      18.301609695518518      2.5531398986201723
  6693   1      26.459288291548557      6.5320224141009309      8.5044712854515137
  6694   1      35.074241197667945      18.867679884602683      3.4779106527825343
  6695   1      34.375983747528913      5.1871081215683228      9.2169397210746542
  6696   1      27.157880159204765      17.522894762344848      2.7654362478379682
  6697   1      27.229877081497957      5.4790183227119806      9.7079519260426785
  6698   1      34.304011492671258      17.814413644817687      2.2744659099557287
  6699   6       31.60871128650513      19.308469745235833      3.9463110464512514
  6700   6      29.925219397570622      6.9729686776300577      8.0363771096418386
  6701   1      30.596452047141494      19.162801340439433      3.5585456728375893
  6702   1      30.937478061536304      6.8268703309316772       8.424079640799313
  6703   1      32.242176390317638      18.492599132388399      3.5923173151207748
  6704   1      29.291463601216773      6.1572521568406655      8.3903012428917254
  6705   1      31.987332750354682        20.2415738017087      3.5150155682501687
  6706   1      29.546995698334207      7.9061588754609984      8.4678861625708883
  6707   6       34.22360217727622      7.4831796332687723     0.79740772207637278
  6708   6      27.310073771238933      19.818592463822696      11.184919023693116
  6709   1      35.068898541372647      8.1670199339793044     0.91820271470253068
  6710   1       26.46481233480829       20.50244190502498      11.064067359327856
  6711   1      33.447652536543693      8.0164405198124005     0.23913144008786985
  6712   1      28.086022473636511      20.351872202079967      11.743183855701348
  6713   6      33.687372185411128      7.0164781461556895      2.1378295522091237
  6714   6      27.846239613357998      19.351820558962917      9.8445063081680342
  6715   1      32.728024100669167       6.504309324421758      2.0270783489902171
  6716   1      28.805590001422221      18.839665838962663      9.9552679985518022
  6717   1      33.517621585095192      7.8959573626557109       2.769811162108256
  6718   1      28.015959270425039      20.231223304885475      9.2123956336574171
  6719   1      34.383521495024077      6.3621914700936459      2.6712106438078189
  6720   1      27.149988140808325       18.69749341132367      9.3113110495365348
  6721  29      30.994268928231474      12.394430506387524      13.198225156518379
  6722  29       30.04629993157036    0.059098961056636229      22.749337962810408
  6723  29      27.935527490090006      11.702600608369234      13.687320869439468
  6724  29      33.104891965663967      24.037948358540945      22.260238198777984
  6725  29       32.30886362494055      12.236806559034791      22.055933950193733
  6726  29      28.731694465059615      24.572253534440087      13.891672498354666
  6727  29      33.679213776846936      12.131433733555685      15.111193668330769
  6728  29      27.361228222355816      24.466845783582237      20.836492494679554
  6729  29      34.812501165233812      12.127203304396378      20.148970174939848
  6730  29      26.228217995936571      24.462774236020078      15.798841817106243
  6731  29      29.193677878476588      11.999839041416422      21.116095937940486
  6732  29      31.846866918211123      24.335168430203165      14.831637030467814
  6733  29      27.563358445913771      11.952366093597529      16.953063838861951
  6734  29      33.477226347282283       24.28772709744473      18.994669874544016
  6735  29      30.677451068308624      12.596148466575405      16.544007197632645
  6736  29      30.363070443298074     0.26080399822941869      19.403513384936744
  6737   7      34.764661415195533      13.162529515211618       16.48170861304083
  6738   7      26.276005660225081     0.82727085349224783      19.465953200215729
  6739   7       34.28641464725623      13.580314597546623      17.527538723235594
  6740   7      26.754204818553447      1.2450924366122484      18.420129643201264
  6741   7       30.87985785898973      13.532463791987681       19.48746161311367
  6742   7      30.160634896462788      1.1971035160871004      16.460100722456154
  6743   7      27.497641407470223      10.625319853328996      22.893246587450143
  6744   7      33.542772780215273      22.960668337916964      13.054306540417295
  6745   7      30.519969755854856      11.166192619280933      22.398686315239878
  6746   7      30.520534753442341      23.501583040564306      13.548918110599372
  6747   7      32.648631031304383       11.14771785351798      13.661613585784991
  6748   7       28.39198596765247      23.483111157597197      22.286077770431056
  6749   7      29.120342190585355      13.185467926097562      12.886192728070517
  6750   7      31.920045489648238      0.8499206111570663      23.061503216613893
  6751   7       26.56684449056365      9.8295857607685875      18.602642637603257
  6752   7      34.473782762633604      22.165032096399319      17.344949071211101
  6753   7      30.527665570329468      9.9521146149524178      22.589571840240747
  6754   7      30.512786885801454      22.287477721843889      13.358190194308259
  6755   7      31.093426347031215      13.803952137364032      18.357506023348272
  6756   7       29.94714898251015      1.4686501414450299      17.590057103887727
  6757   7      27.828721092869781      13.043524465814905      20.023502555703594
  6758   7       33.21185200757342      0.7082333551387332      15.924052047999401
  6759   7      33.041518925701276      11.174436847950929      20.462471198089361
  6760   7      27.999126615848731      23.509894999672742      15.485141259891041
  6761   7      27.242487383084466      9.4398390586793326       15.27973265470953
  6762   7      33.797902146477313      21.775125200130979      20.667936774904856
  6763   7      27.613988965658223      10.891264221025425      21.721256968701425
  6764   7      33.426523820683272      23.226618462327163       14.22630156786088
  6765   7      26.206117397858723      12.748503835628911      13.719297854839283
  6766   7      34.834257093898181     0.41318443770252722      22.228426040591671
  6767   7      32.368412073117888      10.263665673630543      16.762550621259454
  6768   7      28.672231689949058      22.599194037034128      19.184953495434353
  6769   7      28.575936332396005      13.861690305902258      23.888215166023521
  6770   7      32.464483474533026      1.5261260474241058       12.05945849177783
  6771   7      26.552940672069496      11.055997087682538      18.507949861601318
  6772   7       34.48763118407075      23.391463941617097      17.439676620336098
  6773   7      29.833604555463896       10.36749147763333      19.562405511609896
  6774   7      31.207007706889659       22.70289706541978      16.385185549545543
  6775   7       34.86943343356625       13.86711860007582       13.24319391672228
  6776   7      26.171025950968389      1.5317791974053023      22.704552231408627
  6777   7      31.613970537744557       14.54622649897153      23.558237896249523
  6778   7      29.426446914549953      2.2108197368501092      12.389374203903493
  6779   7       32.38644681819315      11.472024518613248      16.541087861564712
  6780   7      28.654010374860274      23.807540636553796      19.406469948999998
  6781   7      29.433992630495585      11.058254617383275      17.304491919534048
  6782   7      31.606372632441808      23.393555097159322      18.643170955291481
  6783   7      31.594735549272684      13.622972132374413      15.011395171585782
  6784   7      29.445834854892738      1.2876357944706323      20.936298919264399
  6785   7      34.019798942178909      14.488297069005569      21.517253528327991
  6786   7      27.020819137865725      2.1529812676857092      14.430375990639764
  6787   7      30.691419993942823      13.304450299337864      20.664252477766439
  6788   7      30.349043119229986     0.96900128908793992      15.283320394967241
  6789   7      29.802515931703454        11.0012800738469      14.081104486164886
  6790   7      31.237937657913911      23.336563070350582      21.866552051633356
  6791   7       27.06255033946114      10.651219754905377       15.24230170613929
  6792   7       33.97797752550845      22.986488647505848      20.705402141704557
  6793   7      28.845350829097185      13.402857050724887      16.335859930164535
  6794   7      32.195181617775141      1.0676852168416315      19.611740020404962
  6795   7      31.752975309293472      13.331449132437665      23.702037913897833
  6796   7      29.287494575988447     0.99604205786422961      12.245563818666787
  6797   7      30.112400385111904       9.815496171861577      14.163105930650955
  6798   7      30.928023157694884      22.150782265878178      21.784569374064525
  6799   7      33.188756496063135      10.867037030790081      12.602484972374658
  6800   7      27.851775822130271      23.202371415788946      23.345159430586456
  6801   7      31.157620224399956      18.156999477657415      18.216007068571187
  6802   7        29.8828685657421      5.8215541399380868      17.731601981231165
  6803   7      34.225208411695228      6.3582007056249745      23.851537475080114
  6804   7      26.815277834703238      18.693641526122807      12.095881127729662
  6805   7      31.693192680766472      14.842020273828654      14.956170233455119
  6806   7      29.347431735108422      2.5066847657604869      20.991566511000407
  6807   7      34.053723319218157      13.267122967704655      21.663161822793462
  6808   7      26.986804982906293     0.93182081450294574      14.284341164656412
  6809   7      27.912046211865906      14.264539117898844      19.902284184560244
  6810   7      33.128492906233973      1.9292377258491977      16.045303562402015
  6811   7      29.644441473084882        10.7052871596632      18.452610111326088
  6812   7      31.396024913524855      23.040674487152344       17.49501804496964
  6813   7      32.892817017667852      9.9550253250306202      20.418872983690754
  6814   7      28.147706274069623      22.290468941445098      15.528645401025967
  6815   7      26.581513504231886       8.664093744546653      18.683704710699807
  6816   7      34.459130910323324      20.999519448793151      17.263961631828849
  6817   7      28.583471184828444      14.471620892865651      15.798966218786447
  6818   7      32.457055841841921       2.136433640997685       20.14868261463613
  6819   7      28.299789176871492      14.526416055578384      22.966693869623064
  6820   7      32.740743950368838      2.1908822827917587      12.980918984777961
  6821   7      32.710978915209012      8.8034435274004768      20.363254940667552
  6822   7      28.329307711906303       21.13884920225096      15.584135467166712
  6823   7       30.43471463071511      8.6986462643125648      14.257563407564053
  6824   7      30.605650585396379      21.033935718778046      21.690241399890539
  6825   7      27.387780250363594       8.276773526522561      15.308677096691145
  6826   7      33.652461130013066      20.612074446693079      20.638927529158831
  6827   7      30.549181714433079      8.8077905800621306      22.827036537431034
  6828   7      30.491321851989611      21.143118731309155      13.120917420181994
  6829   7      33.361495505716576      10.631318332312736      23.515684637040501
  6830   7      27.678822691616837      22.966644813952627      12.431863142250853
  6831   7      28.331222261473972      15.493089594794053      15.290680705362766
  6832   7      32.709145112543631      3.1579934161640537      20.656885720867081
  6833   7      32.370356870208433      9.1179663605680954      16.994884992292302
  6834   7      28.670380224027763       21.45347845793555      18.952703810450174
  6835   7      33.917863229534703      13.952765402604754      18.574537681202195
  6836   7      27.122729557031153      1.6176721298636991        17.3731565706635
  6837   7      31.494698068779375       15.69913304646095      23.424848558998754
  6838   7       29.54569616185999      3.3637303985863918      12.522726310135223
  6839   7      27.588784798146595      10.325097827024711      12.046100214941044
  6840   7      33.451605987524573      22.660459429514752      23.901444034754128
  6841   7      27.985573617829306      15.418689149823509       19.74801079963191
  6842   7      33.054992160990224      3.0833985196456464      16.199576797268037
  6843   7      33.997531594419861      15.647829611117414      21.395477927003128
  6844   7      27.043146547221152      3.3124920147488122      14.552317732154293
  6845   6      26.978647231928626      5.8150428675917114      12.394696497034056
  6846   6       34.06182193126417      18.150454015611285       23.55278787368615
  6847   1      26.827198415681249      5.6399526307660475      13.462480462340826
  6848   1      34.213250346729943      17.975536363510006      22.484982075123433
  6849   1      26.878900345793493      4.8357113680166695      23.915263737545921
  6850   1      34.161631936964937      17.171090373507273      12.032178402557193
  6851   7      34.677052342820431      14.924145619885667      12.788365144285889
  6852   7      26.363424388308299      2.5888029606127909      23.159385877251811
  6853   6      28.636699071987319      18.153983553595697      17.746462775778063
  6854   6      32.403833351527716      5.8183819435834137      18.200724145929936
  6855   1      28.668911404990908      19.124367640758543      17.242147451157667
  6856   1      32.371683248245958      6.7889229600046068      18.704767636231036
  6857   1      28.298159003334003      18.303510346116948      18.775981007790325
  6858   1      32.742193258572144       5.967529421853734      17.171090697166509
  6859   1      27.883968719713554      17.538668317765808      17.240020276512169
  6860   1      33.156625483241292      5.2031597325811685       18.70719774025472
  6861   6       28.17583710039429      6.7151767810766572      12.151070280382134
  6862   6      32.864693745728346      19.050578640822796      23.796471264151691
  6863   1      28.233047581141285      6.7351531075357585      23.083003613986985
  6864   1      32.807594349679725      19.070746603839126       12.86454468871794
  6865   1       29.01547300313646      6.3102727178595428      12.725882242858905
  6866   1      32.024957270050059      18.645640251683865      23.221855644400236
  6867   1      28.018929838938384      7.7432343489298567      12.489076556313298
  6868   1      33.021586358517773      20.078540620121981      23.458244672431704
  6869   6        31.3773371827183       19.45437227539983      17.438883051664455
  6870   6      29.663235149675657      7.1189399320892699      18.508800225105578
  6871   1      30.592566646690603      20.143300760006646      17.768116615851778
  6872   1      30.447904867393689      7.8079609232857647      18.179493809978229
  6873   1      32.332508097132141      19.857318593762873       17.78710198998828
  6874   1      28.707984910754728      7.5219484554851164       18.16079961696839
  6875   6      30.954912597318497      18.564419771549655      19.668496110389363
  6876   6      30.085469690633147      6.2289683560102054      16.279132571583169
  6877   1      30.082470063696448      19.224298188080404      19.683464516382813
  6878   1      30.957760228992512      6.8890596014412413      16.264129792591529
  6879   1      31.818775072206833      19.180311846397913      19.935964491388088
  6880   1       29.22142994772042      6.8446309120011843      16.011845156066386
  6881   6      33.651535551431756      17.718138192209455      18.697365961158443
  6882   6      27.388944315601819      5.3825524794757333      17.250229715560806
  6883   1      33.984309921384749      18.680335183538702      18.298016929261955
  6884   1      27.055852159809106      6.3444558129208621      17.649926507719169
  6885   1      34.425036484233743      16.971434948271163      18.477661584528629
  6886   1      26.615592310442196      4.6356737194129547      17.469809369230703
  6887   1      33.583896160210699      17.791979995142633      19.785790768335328
  6888   1      27.456734957068182      5.4568259864544881      16.161833650811779
  6889   7      31.826910803667385      16.004080537456389      14.860832633785314
  6890   7      29.213815708654653      3.6687617139664654      21.086914795673565
  6891   6      29.950313060678742      17.397862400019477      17.674782562367788
  6892   6      31.090179574887266      5.0623700769465421       18.27275439806683
  6893   1      30.200624106946453      17.131175715332532      16.643695599521049
  6894   1      30.840124676297471      4.7957798776339233      19.303941366142613
  6895   1      29.892433147635099      16.463753169822169      18.240237163115474
  6896   1      31.147893490325757      4.1281997947240239      17.707374257105659
  6897   6      32.360771469329187      17.224060064719488      18.070124315534947
  6898   6      28.679707797464491      4.8886307746974262      17.877503597254272
  6899   1      32.061434883062219      16.265744987158893      18.506962997393767
  6900   1      28.979012739528706      3.9303149231761152      17.440685335465698
  6901   1      32.480447189792791      17.053062575170358      16.995883629544853
  6902   1      28.559936023893268      4.7177318308176899      18.951757395642495
  6903   6      31.867814080684273       5.556360617910876      23.288983959667341
  6904   6      29.172604506564571      17.891761410826412      12.658635576776067
  6905   1      31.879890430062645       5.645754458553629      22.198517569110585
  6906   1      29.160157252468949       17.98109519054772      13.749103548539516
  6907   1      31.466671683889299      6.4850102762916633      23.706179937225947
  6908   1       29.57381981116081      18.820395212581591      12.241521933856273
  6909   1      31.169237201871077      4.7491322254926143      23.539814138188945
  6910   1      29.871132851669909      17.084408101436402       12.40800559006637
  6911   6      33.236361837201741      5.1973083707783552      23.836758769123733
  6912   6      27.804118504189471      17.532754876982008      12.110668443570122
  6913   1      33.430847613058894      4.8212416126792128      12.880412723333757
  6914   1      27.609728196422864      17.156679281488124      23.067004392570837
  6915   1      33.696520068906509      4.4052006013401419      23.241615051183132
  6916   1      27.344020602468895      16.740666680876373       12.70589061130252
  6917   6       30.78874940405812      17.406117017162575       20.63226681405142
  6918   6      30.251703322529806      5.0707377729824659      15.315373788107456
  6919   1      29.900322733927641      16.801100037498415      20.426573163469801
  6920   1      31.140317955519571      4.4659767841617386      15.520830821509293
  6921   1      30.670216336348673       17.82352770099984       21.63846617692483
  6922   1      30.370032044658267      5.4882249555360838      14.309230489955747
  6923   1       31.66688631927558      16.754176192475814      20.667456540377771
  6924   1      29.373753338520356      4.4185609150324732      15.280230025987633
  6925   6      34.383761003309772      6.9503346998357181      22.461032880459808
  6926   6      26.656779682685226      19.285907602403391      13.486334914620036
  6927   1      26.241763255419691      7.7981836939217928      22.564085861322084
  6928   1      34.798654605704485      20.133635948897048      13.383145135501017
  6929   1       33.41077901757744       7.364222361044459      22.181118348844961
  6930   1      27.629800051599446      19.699777589240455       13.76617938690509
  6931   6      26.042832776603436      5.9659451586533985      21.411798882103771
  6932   6      34.997781426392677      18.301608115739228      14.535667654093277
  6933   1      26.212726855246807      6.5320208343216413      20.486999040924619
  6934   1      34.827679761366191      18.867678304823393      15.460438408255641
  6935   1       34.12942231122716      5.1871065417890332       21.19946747654776
  6936   1      26.911318722903015      17.522893182565557      14.747964003311074
  6937   1      26.983315645196207       5.479016742932691      21.690479681515782
  6938   1      34.057450056369504      17.814412065038397      14.256993665428833
  6939   6       31.36214985020338      19.308468165456542      15.928838801924357
  6940   6      29.678657961268872      6.9729670978507681      20.018904865114944
  6941   1      30.349890610839743      19.162799760660143      15.541073428310694
  6942   1      30.690916625234554      6.8268687511523876       20.40660739627242
  6943   1      31.995614954015888      18.492597552609109      15.574845070593881
  6944   1      29.044902164915023      6.1572505770613759      20.372828998364831
  6945   1      31.740771314052932       20.24157222192941      15.497543323723274
  6946   1      29.300434262032461      7.9061572956817088      20.450413918043992
  6947   6      33.977040740974466      7.4831780534894827      12.779935477549479
  6948   6      27.063512334937183      19.818590884043406       23.16744677916622
  6949   1      34.822337105070901      8.1670183542000139      12.900730470175636
  6950   1       26.21825089850654       20.50244032524569      23.046595114800962
  6951   1      33.201091100241939        8.01643894003311      12.221659195560976
  6952   1      27.839461037334761      20.351870622300677      23.725711611174454
  6953   6      33.440810749109382      7.0164765663763999       14.12035730768223
  6954   6      27.599678177056248      19.351818979183626       21.82703406364114
  6955   1       32.48146266436742      6.5043077446424684      14.009606104463323
  6956   1      28.559028565120471      18.839664259183373      21.937795754024908
  6957   1      33.271060148793438      7.8959557828764213      14.752338917581362
  6958   1      27.769397834123289      20.231221725106185      21.194923389130523
  6959   1      34.136960058722323      6.3621898903143563      14.653738399280925
  6960   1      26.903426704506575      18.697491831544379      21.293838805009642
  6961  29      30.747707491929724      12.394428926608235      25.180752911991483
  6962  29       29.79973849526861    0.059097381277346352      34.731865718283515
  6963  29      27.688966053788256      11.702599028589946      25.669848624912575
  6964  29       32.85833052936222      24.037946778761654      34.242765954251091
  6965  29      32.062302188638803      12.236804979255503       34.03846170566684
  6966  29      28.485133028757865      24.572251954660796       25.87420025382777
  6967  29      33.432652340545182      12.131432153776396      27.093721423803874
  6968  29      27.114666786054066      24.466844203802946      32.819020250152661
  6969  29      34.565939728932065      12.127201724617089      32.131497930412948
  6970  29      25.981656559634821      24.462772656240787      27.781369572579351
  6971  29      28.947116442174838      11.999837461637133      33.098623693413593
  6972  29      31.600305481909373      24.335166850423875      26.814164785940918
  6973  29      27.316797009612021      11.952364513818241      28.935591594335058
  6974  29      33.230664910980536      24.287725517665439       30.97719763001712
  6975  29      30.430889632006874      12.596146886796117      28.526534953105749
  6976  29      30.116509006996324      0.2608024184501288      31.386041140409848
  6977   7      34.518099978893787       13.16252793543233      28.464236368513934
  6978   7      26.029444223923331     0.82726927371295789      31.448480955688837
  6979   7      34.039853210954476      13.580313017767335      29.510066478708698
  6980   7      26.507643382251697      1.2450908568329586      30.402657398674371
  6981   7      30.633296422687977      13.532462212208392      31.469989368586774
  6982   7      29.914073460161038      1.1971019363078106      28.442628477929262
  6983   7      27.251079971168473      10.625318273549707      34.875774342923251
  6984   7      33.296211343913527      22.960666758137673      25.036834295890401
  6985   7      30.273408319553106      11.166191039501644      34.381214070712986
  6986   7      30.273973317140587      23.501581460785015      25.531445866072477
  6987   7      32.402069595002629      11.147716273738691      25.644141341258095
  6988   7       28.14542453135072      23.483109577817906      34.268605525904164
  6989   7      28.873780754283604      13.185466346318274      24.868720483543623
  6990   7      31.673484053346488     0.84991903137777636         35.044030972087
  6991   7        26.3202830542619      9.8295841809892988      30.585170393076364
  6992   7      34.227221326331851      22.165030516620028      29.327476826684205
  6993   7      30.281104134027714      9.9521130351731291      34.572099595713851
  6994   7      30.266225449499707      22.287476142064598      25.340717949781364
  6995   7      30.846864910729465      13.803950557584743      30.340033778821379
  6996   7        29.7005875462084      1.4686485616657401       29.57258485936083
  6997   7      27.582159656568031      13.043522886035616      32.006030311176701
  6998   7      32.965290571271666     0.70823177535944326      27.906579803472507
  6999   7      32.794957489399522       11.17443526817164      32.444998953562468
  7000   7      27.752565179546977      23.509893419893451      27.467669015364148
  7001   7      26.995925946782716      9.4398374789000439      27.262260410182638
  7002   7      33.551340710175559      21.775123620351689       32.65046453037796
  7003   7      27.367427529356476      10.891262641246136      33.703784724174533
  7004   7      33.179962384381525      23.226616882547873      26.208829323333983
  7005   7      25.959555961556973      12.748502255849623      25.701825610312387
  7006   7      34.587695657596434     0.41318285792323733      34.210953796064771
  7007   7      32.121850636816134      10.263664093851254      28.745078376732561
  7008   7      28.425670253647308      22.599192457254837      31.167481250907461
  7009   7      28.329374896094254      13.861688726122969      35.870742921496628
  7010   7      32.217922038231272       1.526124467644816      24.041986247250936
  7011   7      26.306379235767746      11.055995507903249      30.490477617074426
  7012   7      34.241069747769004      23.391462361837807      29.422204375809205
  7013   7      29.587043119162146      10.367489897854041      31.544933267083003
  7014   7      30.960446270587909      22.702895485640489      28.367713305018647
  7015   7      34.622871997264497      13.867117020296531      25.225721672195384
  7016   7      25.924464514666639      1.5317776176260125      34.687079986881727
  7017   7      31.367409101442803      14.546224919192241       35.54076565172263
  7018   7      29.179885478248202      2.2108181570708196      24.371901959376601
  7019   7      32.139885381891396      11.472022938833959      28.523615617037816
  7020   7      28.407448938558524      23.807539056774505      31.388997704473105
  7021   7      29.187431194193834      11.058253037603986      29.287019675007151
  7022   7      31.359811196140058      23.393553517380031      30.625698710764588
  7023   7      31.348174112970934      13.622970552595124       26.99392292705889
  7024   7      29.199273418590987      1.2876342146913424      32.918826674737502
  7025   7      33.773237505877155       14.48829548922628      33.499781283801099
  7026   7      26.774257701563975      2.1529796879064196      26.412903746112868
  7027   7      30.444858557641073      13.304448719558575      32.646780233239539
  7028   7      30.102481682928236     0.96899970930864998      27.265848150440345
  7029   7        29.5559544954017      11.001278494067611       26.06363224163799
  7030   7       30.99137622161216      23.336561490571292      33.849079807106463
  7031   7       26.81598890315939      10.651218175126088      27.224829461612394
  7032   7      33.731416089206704      22.986487067726557      32.687929897177661
  7033   7      28.598789392795435      13.402855470945598      28.318387685637639
  7034   7      31.948620181473391      1.0676836370623417      31.594267775878066
  7035   7      31.506413872991722      13.331447552658377       35.68456566937094
  7036   7      29.040933139686697     0.99604047808493967      24.228091574139892
  7037   7      29.865838948810151      9.8154945920822882      26.145633686124061
  7038   7      30.681461721393134      22.150780686098887      33.767097129537632
  7039   7      32.942195059761389      10.867035451010793      24.585012727847765
  7040   7      27.605214385828521      23.202369836009655      35.327687186059563
  7041   7      30.911058788098206      18.156997897878124      30.198534824044291
  7042   7       29.63630712944035      5.8215525601587963      29.714129736704269
  7043   7      33.978646975393474       6.358199125845684      35.834065230553222
  7044   7      26.568716398401488      18.693639946343517      24.078408883202766
  7045   7      31.446631244464722      14.842018694049365      26.938697988928222
  7046   7      29.100870298806672      2.5066831859811973      32.974094266473514
  7047   7      33.807161882916411      13.267121387925366       33.64568957826657
  7048   7      26.740243546604543      0.9318192347236558      26.266868920129518
  7049   7      27.665484775564156      14.264537538119555      31.884811940033348
  7050   7      32.881931469932226      1.9292361460699079      28.027831317875119
  7051   7      29.397880036783132      10.705285579883911      30.435137866799195
  7052   7      31.149463477223104      23.040672907373054      29.477545800442748
  7053   7      32.646255581366098      9.9550237452513315      32.401400739163861
  7054   7      27.901144837767873      22.290467361665808      27.511173156499073
  7055   7      26.334952067930136      8.6640921647673643      30.666232466172914
  7056   7      34.212569474021578      20.999517869013861      29.246489387301953
  7057   7      28.336909748526693      14.471619313086363      27.781493974259554
  7058   7      32.210494405540175      2.1364320612183954       32.13121037010923
  7059   7      28.053227740569742      14.526414475799095      34.949221625096172
  7060   7      32.494182514067091      2.1908807030124691      24.963446740251069
  7061   7      32.464417478907258       8.803441947621188       32.34578269614066
  7062   7      28.082746275604553      21.138847622471669      27.566663222639818
  7063   7       30.18815319441336      8.6986446845332761      26.240091163037157
  7064   7      30.359089149094629      21.033934138998756      33.672769155363646
  7065   7      27.141218814061844      8.2767719467432723      27.291204852164249
  7066   7      33.405899693711312      20.612072866913788      32.621455284631935
  7067   7      30.302620278131329      8.8077890002828418      34.809564292904142
  7068   7       30.24476041568786      21.143117151529864        25.1034451756551
  7069   7      33.114934069414829      10.631316752533447      35.498212392513608
  7070   7      27.432261255315087      22.966643234173336      24.414390897723958
  7071   7      28.084660825172222      15.493088015014765      27.273208460835871
  7072   7      32.462583676241877      3.1579918363847641      32.639413476340181
  7073   7      32.123795433906679      9.1179647807888067      28.977412747765406
  7074   7      28.423818787726013      21.453476878156259      30.935231565923281
  7075   7      33.671301793232956      13.952763822825466      30.557065436675302
  7076   7      26.876168120729403      1.6176705500844093      29.355684326136608
  7077   7      31.248136632477625      15.699131466681662      35.407376314471861
  7078   7       29.29913472555824      3.3637288188071022      24.505254065608327
  7079   7      27.342223361844844      10.325096247245423      24.028627970414149
  7080   7      33.205044551222826      22.660457849735462      35.883971790227235
  7081   7      27.739012181527556       15.41868757004422      31.730538555105014
  7082   7      32.808430724688478      3.0833969398663568      28.182104552741144
  7083   7      33.750970158118115      15.647828031338125      33.378005682476235
  7084   7      26.796585110919402      3.3124904349695226        26.5348454876274
  7085   6      26.732085795626872      5.8150412878124209      24.377224252507162
  7086   6      33.815260494962423      18.150452435831994      35.535315629159257
  7087   1      26.580636979379499       5.639951050986757      25.445008217813932
  7088   1      33.966688910428196      17.975534783730716      34.467509830596541
  7089   1      26.632338909491743       4.835709788237379      35.897791493019028
  7090   1      33.915070500663191      17.171088793727982      24.014706158030297
  7091   7      34.430490906518678      14.924144040106379      24.770892899758994
  7092   7      26.116862952006549      2.5888013808335013      35.141913632724915
  7093   6      28.390137635685569      18.153981973816407      29.728990531251171
  7094   6      32.157271915225969      5.8183803638041232       30.18325190140304
  7095   1      28.422349968689161      19.124366060979252      29.224675206630774
  7096   1      32.125121811944204      6.7889213802253163       30.68729539170414
  7097   1      28.051597567032253      18.303508766337657      30.758508763263432
  7098   1       32.49563182227039      5.9675278420744435      29.153618452639616
  7099   1      27.637407283411804      17.538666737986517      29.222548031985276
  7100   1      32.910064046939546       5.203158152801878      30.689725495727824
  7101   6      27.929275664092536      6.7151752012973667       24.13359803585524
  7102   6      32.618132309426599      19.050577061043505      35.778999019624791
  7103   1      27.986486144839535       6.735151527756468      35.065531369460089
  7104   1      32.561032913377979      19.070745024059836      24.847072444191046
  7105   1       28.76891156683471      6.3102711380802523      24.708409998332012
  7106   1      31.778395833748309      18.645638671904575      35.204383399873343
  7107   1      27.772368402636634      7.7432327691505662      24.471604311786404
  7108   1      32.775024922216026       20.07853904034269      35.440772427904804
  7109   6       31.13077574641655       19.45437069562054      29.421410807137558
  7110   6      29.416673713373907      7.1189383523099794      30.491327980578681
  7111   1      30.346005210388853      20.143299180227356      29.750644371324885
  7112   1      30.201343431091939      7.8079593435064742      30.162021565451333
  7113   1      32.085946660830388      19.857317013983582      29.769629745461387
  7114   1      28.461423474452978      7.5219468757058259      30.143327372441497
  7115   6      30.708351161016743      18.564418191770365      31.651023865862467
  7116   6      29.838908254331397      6.2289667762309149      28.261660327056273
  7117   1      29.835908627394698      19.224296608301113      31.665992271855917
  7118   1      30.711198792690762      6.8890580216619508      28.246657548064633
  7119   1      31.572213635905083      19.180310266618623      31.918492246861192
  7120   1       28.97486851141867      6.8446293322218938      27.994372911539489
  7121   6       33.40497411513001      17.718136612430165      30.679893716631547
  7122   6      27.142382879300069      5.3825508996964428      29.232757471033914
  7123   1      33.737748485082996      18.680333603759411      30.280544684735059
  7124   1      26.809290723507356      6.3444542331415716      29.632454263192272
  7125   1      34.178475047931997      16.971433368491873      30.460189340001737
  7126   1      26.369030874140446      4.6356721396336642      29.452337124703806
  7127   1      33.337334723908945      17.791978415363342      31.768318523808432
  7128   1      27.210173520766432      5.4568244066751976      28.144361406284887
  7129   7      31.580349367365635      16.004078957677098      26.843360389258422
  7130   7      28.967254272352903      3.6687601341871758      33.069442551146672
  7131   6      29.703751624376991      17.397860820240187      29.657310317840896
  7132   6      30.843618138585516      5.0623684971672516      30.255282153539934
  7133   1      29.954062670644703      17.131174135553241      28.626223354994156
  7134   1      30.593563239995721      4.7957782978546328      31.286469121615717
  7135   1      29.645871711333349      16.463751590042879      30.222764918588581
  7136   1      30.901332054024007      4.1281982149447334      29.689902012578766
  7137   6      32.114210033027433      17.224058484940198      30.052652071008055
  7138   6      28.433146361162741      4.8886291949181357      29.860031352727379
  7139   1      31.814873446760473      16.265743407379603      30.489490752866875
  7140   1      28.732451303226956      3.9303133433968256      29.423213090938802
  7141   1      32.233885753491037      17.053060995391068       28.97841138501796
  7142   1      28.313374587591518      4.7177302510383994      30.934285151115603
  7143   6      31.621252644382523      5.5563590381315855      35.271511715140448
  7144   6      28.926043070262821      17.891759831047121      24.641163332249171
  7145   1      31.633328993760895      5.6457528787743385      34.181045324583692
  7146   1      28.913595816167199      17.981093610768429      25.731631304012623
  7147   1      31.220110247587549      6.4850086965123728      35.688707692699055
  7148   1       29.32725837485906        18.8203936328023      24.224049689329377
  7149   1      30.922675765569327      4.7491306457133238      35.522341893662052
  7150   1      29.624571415368159      17.084406521657112      24.390533345539474
  7151   6      32.989800400899988      5.1973067909990647      35.819286524596841
  7152   6      27.557557067887721      17.532753297202717      24.093196199043227
  7153   1      33.184286176757141      4.8212400328999223      24.862940478806863
  7154   1      27.363166760121114      17.156677701708833      35.049532148043937
  7155   1      33.449958632604755      4.4051990215608514      35.224142806656232
  7156   1      27.097459166167145      16.740665101097083      24.688418366775625
  7157   6      30.542187967756369      17.406115437383285       32.61479456952452
  7158   6      30.005141886228056      5.0707361932031754      27.297901543580561
  7159   1      29.653761297625891      16.801098457719124      32.409100918942904
  7160   1      30.893756519217821      4.4659752043824481        27.5033585769824
  7161   1      30.423654900046927      17.823526121220549      33.620993932397937
  7162   1      30.123470608356516      5.4882233757567933      26.291758245428852
  7163   1       31.42032488297383      16.754174612696524      32.649984295850878
  7164   1      29.127191902218605      4.4185593352531827      27.262757781460738
  7165   6      34.137199567008025      6.9503331200564276      34.443560635932911
  7166   6      26.410218246383476      19.285906022624101      25.468862670093142
  7167   1      25.995201819117941      7.7981821141425023      34.546613616795192
  7168   1      34.552093169402738      20.133634369117758      25.365672890974121
  7169   1      33.164217581275686      7.3642207812651685      34.163646104318062
  7170   1      27.383238615297696      19.699776009461164      25.748707142378194
  7171   6      25.796271340301686       5.965943578874108      33.394326637576874
  7172   6      34.751219990090931      18.301606535959937      26.518195409566385
  7173   1      25.966165418945057      6.5320192545423508      32.469526796397723
  7174   1      34.581118325064445      18.867676725044102      27.442966163728745
  7175   1      33.882860874925413      5.1871049620097427      33.181995232020867
  7176   1      26.664757286601265      17.522891602786267      26.730491758784179
  7177   1      26.736754208894457      5.4790151631534005       33.67300743698889
  7178   1      33.810888620067757      17.814410485259106      26.239521420901941
  7179   6       31.11558841390163      19.308466585677252      27.911366557397464
  7180   6      29.432096524967122      6.9729655180714776      32.001432620588048
  7181   1      30.103329174537993      19.162798180880852        27.5236011837838
  7182   1      30.444355188932803      6.8268671713730971      32.389135151745521
  7183   1      31.749053517714138      18.492595972829818      27.557372826066985
  7184   1      28.798340728613272      6.1572489972820854      32.355356753837938
  7185   1      31.494209877751182      20.241570642150119      27.480071079196378
  7186   1      29.053872825730707      7.9061557159024183      32.432941673517099
  7187   6       33.73047930467272      7.4831764737101922      24.762463233022583
  7188   6      26.816950898635433      19.818589304264115      35.149974534639327
  7189   1      34.575775668769147      8.1670167744207252      24.883258225648742
  7190   1       25.97168946220479      20.502438745466399      35.029122870274065
  7191   1      32.954529663940193      8.0164373602538213      24.204186951034082
  7192   1      27.592899601033011      20.351869042521386      35.708239366647561
  7193   6      33.194249312807628      7.0164749865971094      26.102885063155334
  7194   6      27.353116740754498      19.351817399404336      33.809561819114244
  7195   1      32.234901228065667      6.5043061648631779      25.992133859936427
  7196   1      28.312467128818721      18.839662679404082      33.920323509498012
  7197   1      33.024498712491692      7.8959542030971308      26.734866673054466
  7198   1      27.522836397821539      20.231220145326894       33.17745114460363
  7199   1      33.890398622420577      6.3621883105350658      26.636266154754029
  7200   1      26.656865268204825      18.697490251765089      33.276366560482742
  7201  29      31.240828743166215      37.065201425469574      1.2156974010452735
  7202  29      30.292859746505101      24.729869880138683      10.766810207337304
  7203  29      28.182087305024748      36.373371527451283      1.7047931139663628
  7204  29      33.351451780598708       48.70871927762299      10.277710443304878
  7205  29      32.555423439875291      36.907577478116842      10.073406194720627
  7206  29      28.978254279994356      49.243024453522139      1.9091447428815596
  7207  29      33.925773591781677      36.802204652637734       3.128665912857663
  7208  29      27.607788037290558      49.137616702664289      8.8539647392064484
  7209  29      35.059060980168553      36.797974223478427      8.1664424194667404
  7210  29      26.474777810871313      49.133545155102127      3.8163140616331384
  7211  29       29.44023769341133      36.670609960498467      9.1335681824673802
  7212  29      32.093426733145861      49.005939349285214      2.8491092749947078
  7213  29      27.809918260848512      36.623137012679578       4.970536083388847
  7214  29      33.723786162217024      48.958498016526775      7.0121421190709086
  7215  29      30.924010883243366      37.266919385657452      4.5614794421595377
  7216  29      30.609630258232816      24.931574917311465      7.4209856294636376
  7217   7      35.011221230130275      37.833300434293669      4.4991808575677226
  7218   7      26.522565475159823      25.498041772574297      7.4834254447426245
  7219   7      34.532974462190971       38.25108551662867      5.5450109677624866
  7220   7      27.000764633488188      25.915863355694295      6.4376018877281602
  7221   7      31.126417673924472      38.203234711069726      7.5049338576405642
  7222   7       30.40719471139753      25.867874435169149      4.4775729669830495
  7223   7      27.744201222404964      35.296090772411048      10.910718831977039
  7224   7      33.789332595150015      47.631439256999016      1.0717787849441902
  7225   7      30.766529570789597       35.83696353836298      10.416158559766773
  7226   7      30.767094568377082      48.172353959646358       1.566390355126267
  7227   7      32.895190846239124      35.818488772600027       1.679085830311885
  7228   7      28.638545782587212      48.153882076679245      10.303550014957949
  7229   7      29.366902005520096      37.856238845179611     0.90366497259741219
  7230   7       32.16660530458298      25.520691530239116      11.078975461140789
  7231   7      26.813404305498391       34.50035667985064      6.6201148821301521
  7232   7      34.720342577568346      46.835803015481368      5.3624213157379943
  7233   7      30.774225385264209      34.622885534034467      10.607044084767642
  7234   7      30.759346700736195      46.958248640925937      1.3756624388351535
  7235   7      31.339986161965957      38.474723056446081       6.374978267875167
  7236   7      30.193708797444891      26.139421060527077      5.6075293484146211
  7237   7      28.075280907804522      37.714295384896957      8.0409748002304884
  7238   7      33.458411822508161      25.379004274220783      3.9415242925262959
  7239   7      33.288078740636017      35.845207767032974      8.4799434426162552
  7240   7      28.245686430783472      48.180665918754791      3.5026135044179361
  7241   7      27.489047198019207      34.110609977761385      3.2972048992364256
  7242   7      34.044461961412054      46.445896119213032      8.6854090194317504
  7243   7      27.860548780592964      35.562035140107476      9.7387292132283196
  7244   7      33.673083635618013      47.897389381409212      2.2437738123877731
  7245   7      26.452677212793464      37.419274754710962      1.7367700993661772
  7246   7      35.080816908832922      25.083955356784575      10.245898285118564
  7247   7      32.614971888052629      34.934436592712593      4.7800228657863491
  7248   7      28.918791504883799      47.269964956116176      7.2024257399612486
  7249   7      28.822496147330746      38.532461224984303      11.905687410550415
  7250   7      32.711043289467767      26.196896966506152    0.076930736304725078
  7251   7      26.799500487004238      35.726768006764587      6.5254221061282127
  7252   7      34.734190999005492      48.062234860699149      5.4571488648629929
  7253   7      30.080164370398638      35.038262396715382      7.5798777561367912
  7254   7        31.4535675218244      47.373667984501829      4.4026577940724367
  7255   7      35.115993248500992      38.537889519157872      1.2606661612491736
  7256   7       26.41758576590313      26.202550116487352       10.72202447593552
  7257   7      31.860530352679298       39.21699741805358      11.575710140776419
  7258   7      29.673006729484694      26.881590655932158     0.40684644843038786
  7259   7      32.633006633127891      36.142795437695298      4.5585601060916048
  7260   7      28.900570189795015      48.478311555635841      7.4239421935268934
  7261   7      29.680552445430326      35.729025536465322      5.3219641640609412
  7262   7      31.852932447376549      48.064326016241367      6.6606431998183764
  7263   7      31.841295364207426       38.29374305145646      3.0288674161126767
  7264   7      29.692394669827479       25.95840671355268      8.9537711637912931
  7265   7       34.26635875711365      39.159067988087614      9.5347257728548875
  7266   7      27.267378952800467      26.823752186767756      2.4478482351666573
  7267   7      30.937979808877564      37.975221218419911      8.6817247222933318
  7268   7      30.595602934164727      25.639772208169987      3.3007926394941349
  7269   7      30.049075746638195      35.672050992928945      2.0985767306917804
  7270   7      31.484497472848652      48.007333989432631      9.8840242961602485
  7271   7      27.309110154395881      35.321990673987429       3.259773950666184
  7272   7      34.224537340443192      47.657259566587896      8.7228743862314513
  7273   7      29.091910644031927      38.073627969806935      4.3533321746914284
  7274   7      32.441741432709883      25.738456135923681      7.6292122649318568
  7275   7      31.999535124228213      38.002220051519714      11.719510158424725
  7276   7      29.534054390923188      25.666812976946279     0.26303606319368061
  7277   7      30.358960200046646      34.486267090943628      2.1805781751778497
  7278   7      31.174582972629626      46.821553184960223       9.802041618591419
  7279   7      33.435316310997877      35.537807949872132     0.61995721690155225
  7280   7      28.098335637065013      47.873142334870991      11.362631675113349
  7281   7      31.404180039334697      42.827770396739467      6.2334793130980799
  7282   7      30.129428380676842      30.492325059020136      5.7490742257580587
  7283   7      34.471768226629969      31.028971624707022      11.869009719607009
  7284   7       27.06183764963798      43.364412445204856     0.11335337225655616
  7285   7      31.939752495701214      39.512791192910704      2.9736424779820125
  7286   7      29.593991550043164      27.177455684842535      9.0090387555273015
  7287   7      34.300283134152899      37.937893886786703      9.6806340673203568
  7288   7      27.233364797841034      25.602591733584994      2.3018134091833065
  7289   7      28.158606026800648      38.935310036980894      7.9197564290871378
  7290   7      33.375052721168714      26.600008644931247      4.0627758069289097
  7291   7      29.891001288019623      35.376058078745245      6.4700823558529832
  7292   7      31.642584728459596       47.71144540623439      5.5124902894965349
  7293   7      33.139376832602593      34.625796244112671      8.4363452282176503
  7294   7      28.394266089004365      46.961239860527144       3.546117645552862
  7295   7      26.828073319166627        33.3348646636287      6.7011769552267015
  7296   7      34.705690725258066      45.670290367875197      5.2814338763557416
  7297   7      28.830030999763185      39.142391811947704      3.8164384633133417
  7298   7      32.703615656776662      26.807204560079732      8.1661548591630222
  7299   7      28.546348991806234      39.197186974660433      10.984166114149959
  7300   7      32.987303765303579      26.861653201873807     0.99839122930485635
  7301   7      32.957538730143753      33.474214446482527      8.3807271851944467
  7302   7      28.575867526841044      45.809620121333012      3.6016077116936072
  7303   7      30.681274445649851      33.369417183394617      2.2750356520909465
  7304   7      30.852210400331121      45.704706637860099       9.707713644417435
  7305   7      27.634340065298336      32.947544445604606      3.3261493412180396
  7306   7      33.899020944947807      45.282845365775131      8.6563997736857257
  7307   7       30.79574152936782      33.478561499144178      10.844508781957927
  7308   7      30.737881666924352      45.813889650391204      1.1383896647088887
  7309   7      33.608055320651317      35.302089251394783      11.533156881567393
  7310   7      27.925382506551578      47.637415733034672     0.44933538677774715
  7311   7      28.577782076408713      40.163860513876102        3.30815294988966
  7312   7      32.955704927478372      27.828764335246102      8.6743579653939733
  7313   7      32.616916685143174      33.788737279650142      5.0123572368191969
  7314   7      28.916940038962505      46.124249377017598      6.9701760549770704
  7315   7      34.164423044469444        38.6235363216868      6.5920099257290907
  7316   7      27.369289371965895      26.288443048945748      5.3906288151903956
  7317   7      31.741257883714116      40.369903965543003      11.442320803525647
  7318   7      29.792255976794731       28.03450131766844     0.54019855466211697
  7319   7      27.835344613081336      34.995868746106758    0.063572459467938755
  7320   7      33.698165802459314      47.331230348596804      11.918916279281023
  7321   7      28.232133432764048      40.089460068905559      7.7654830441588034
  7322   7      33.301551975924966      27.754169438727693      4.2170490417949322
  7323   7      34.244091409354603      40.318600530199461      9.4129501715300243
  7324   7      27.289706362155894      27.983262933830861      2.5697899766811876
  7325   6      27.225207046863368      30.485813786673759     0.41216874156095079
  7326   6      34.308381746198911      42.821224934693333      11.570260118213042
  7327   1       27.07375823061599      30.310723549848095      1.4799527068677203
  7328   1      34.459810161664684      42.646307282592055      10.502454319650329
  7329   1      27.125460160728235      29.506482287098716      11.932735982072813
  7330   1      34.408191751899679      41.841861292589321    0.049650647084087035
  7331   7      34.923612157755173      39.594916538967716     0.80583738881278266
  7332   7      26.609984203243041      27.259573879694841      11.176858121778706
  7333   6      28.883258886922061      42.824754472677746      5.7639350203049595
  7334   6      32.650393166462457      30.489152862665463      6.2181963904568294
  7335   1      28.915471219925649      43.795138559840595      5.2596196956845622
  7336   1      32.618243063180699      31.459693879086654      6.7222398807579298
  7337   1      28.544718818268745      42.974281265198996        6.79345325231722
  7338   1      32.988753073506885      30.638300340935782      5.1885629416934043
  7339   1      28.130528534648295      42.209439236847857      5.2574925210390653
  7340   1      33.403185298176034      29.873930651663215       6.724669984781614
  7341   6      28.422396915329031      31.385947700158706     0.16854252490902921
  7342   6      33.111253560663087      43.721349559904844      11.813943508678584
  7343   1      28.479607396076027      31.405924026617807       11.10047585851388
  7344   1      33.054154164614467      43.741517522921171      0.8820169332448351
  7345   1      29.262032818071201      30.981043636941592     0.74335448738580023
  7346   1      32.271517084984801      43.316411170765917       11.23932788892713
  7347   1      28.265489653873125      32.414005268011906     0.50654880084019216
  7348   1      33.268146173452514      44.749311539204029      11.475716916958596
  7349   6      31.623896997653041      44.125143194481879      5.4563552961913473
  7350   6      29.909794964610398      31.789710851171318      6.5262724696324712
  7351   1      30.839126461625344      44.814071679088698      5.7855888603786729
  7352   1       30.69446468232843      32.478731842367814      6.1969660545051228
  7353   1      32.579067912066883      44.528089512844922      5.8045742345151758
  7354   1       28.95454472568947      32.192719374567162      6.1782718614952854
  7355   6      31.201472412253239      43.235190690631704      7.6859683549162563
  7356   6      30.332029505567888      30.899739275092251      4.2966048161100616
  7357   1      30.329029878631189      43.895069107162456      7.7009367609097064
  7358   1      31.204320043927254      31.559830520523288      4.2816020371184234
  7359   1      32.065334887141574      43.851082765479958      7.9534367359149813
  7360   1      29.467989762655161      31.515401831083231      4.0293174005932784
  7361   6      33.898095366366498      42.388909111291504      6.7148382056853375
  7362   6       27.63550413053656      30.053323398557779      5.2677019600877015
  7363   1      34.230869736319491      43.351106102620747      6.3154891737888477
  7364   1      27.302411974743848      31.015226732002908      5.6673987522460632
  7365   1      34.671596299168485      41.642205867353212      6.4951338290555247
  7366   1      26.862152125376937      29.306444638495002      5.4872816137575953
  7367   1      33.830455975145441      42.462750914224685      7.8032630128622218
  7368   1      27.703294772002923      30.127596905536535      4.1793058953386746
  7369   7      32.073470618602123      40.674851456538434      2.8783048783122096
  7370   7      29.460375523589395      28.339532633048513      9.1043870402004607
  7371   6      30.196872875613483      42.068633319101522      5.6922548068946845
  7372   6      31.336739389822007      29.733140996028588      6.2902266425937228
  7373   1      30.447183921881194      41.801946634414577      4.6611678440479443
  7374   1      31.086684491232212      29.466550796715971      7.3214136106695067
  7375   1      30.138992962569841      41.134524088904215       6.257709407642368
  7376   1      31.394453305260498      28.798970713806071      5.7248465016325545
  7377   6      32.607331284263928       41.89483098380154      6.0875965600618427
  7378   6      28.926267612399233      29.559401693779474      5.8949758417811671
  7379   1      32.307994697996961      40.936515906240942      6.5244352419206626
  7380   1      29.225572554463447      28.601085842258165      5.4581575799925917
  7381   1      32.727007004727533      41.723833494252403      5.0133558740717481
  7382   1       28.80649583882801      29.388502749899736      6.9692296401693898
  7383   6      32.114373895619011      30.227131536992925      11.306456204194236
  7384   6      29.419164321499313      42.562532329908464     0.67610782130296165
  7385   1      32.126450244997386      30.316525377635678       10.21598981363748
  7386   1       29.40671706740369      42.651866109629765      1.7665757930664105
  7387   1       31.71323149882404      31.155781195373713      11.723652181752843
  7388   1      29.820379626095551       43.49116613166364     0.25899417838316663
  7389   1      31.415797016805818      29.419903144574661      11.557286382715841
  7390   1       30.11769266660465      41.755179020518455     0.42547783459326416
  7391   6      33.482921652136483      29.868079289860404      11.854231013650629
  7392   6      28.050678319124213      42.203525796064056      0.1281406880970157
  7393   1      33.677407427993636      29.492012531761262     0.89788496786065197
  7394   1      27.856288011357606      41.827450200570169       11.08447663709773
  7395   1       33.94307988384125       29.07597152042219      11.259087295710025
  7396   1      27.590580417403636      41.411437599958418     0.72336285582941362
  7397   6      31.035309218992861      42.076887936244624      8.6497390585783123
  7398   6      30.498263137464548      29.741508692064514      3.3328460326343503
  7399   1      30.146882548862383       41.47187095658046      8.4440454079966951
  7400   1      31.386877770454312      29.136747703243785      3.5383030660361872
  7401   1      30.916776151283415      42.494298620081892      9.6559384214517223
  7402   1      30.616591859593008      30.158995874618132      2.3267027344826414
  7403   1      31.913446134210322      41.424947111557863       8.684928784904665
  7404   1      29.620313153455097      29.089331834114521      3.2977022705145274
  7405   6      34.630320818244513      31.621105618917767      10.478505124986702
  7406   6      26.903339497619967      43.956678521485443      1.5038071591469302
  7407   1      26.488323070354433      32.468954613003838      10.581558105848979
  7408   1      35.045214420639226      44.804406867979097      1.4006173800279111
  7409   1      33.657338832512181      32.034993280126507      10.198590593371854
  7410   1      27.876359866534187        44.3705485083225      1.7836516314319844
  7411   6      26.289392591538178      30.636716077735446       9.429271126630665
  7412   6      35.244341241327419      42.972379034821273      2.5531398986201723
  7413   1      26.459286670181548      31.202791753403687      8.5044712854515137
  7414   1      35.074239576300933      43.538449223905445      3.4779106527825343
  7415   1      34.375982126161901       29.85787746087108      9.2169397210746542
  7416   1      27.157878537837757      42.193664101647606      2.7654362478379682
  7417   1      27.229875460130948      30.149787662014738      9.7079519260426785
  7418   1      34.304009871304245      42.485182984120442      2.2744659099557287
  7419   6      31.608709665138122      43.979239084538591      3.9463110464512514
  7420   6      29.925217776203613      31.643738016932815      8.0363771096418386
  7421   1      30.596450425774485      43.833570679742195      3.5585456728375893
  7422   1      30.937476440169295      31.497639670234435       8.424079640799313
  7423   1      32.242174768950626      43.163368471691157      3.5923173151207748
  7424   1      29.291461979849764      30.828021496143425      8.3903012428917254
  7425   1      31.987331128987673      44.912343141011462      3.5150155682501687
  7426   1      29.546994076967202      32.576928214763754      8.4678861625708883
  7427   6      34.223600555909208      32.153948972571527     0.79740772207637278
  7428   6      27.310072149871925      44.489361803125455      11.184919023693116
  7429   1      35.068896920005642      32.837789273282063     0.91820271470253068
  7430   1      26.464810713441281      45.173211244327739      11.064067359327856
  7431   1      33.447650915176681      32.687209859115157     0.23913144008786985
  7432   1      28.086020852269503      45.022641541382725      11.743183855701348
  7433   6      33.687370564044123       31.68724748545845      2.1378295522091237
  7434   6      27.846237991990989      44.022589898265679      9.8445063081680342
  7435   1      32.728022479302162      31.175078663724516      2.0270783489902171
  7436   1      28.805588380055212      43.510435178265425      9.9552679985518022
  7437   1       33.51761996372818      32.566726701958473       2.769811162108256
  7438   1      28.015957649058031      44.901992644188233      9.2123956336574171
  7439   1      34.383519873657065      31.032960809396403      2.6712106438078189
  7440   1      27.149986519441317      43.368262750626428      9.3113110495365348
  7441  29      30.994267306864465       37.06519984569028      13.198225156518379
  7442  29      30.046298310203351      24.729868300359392      22.749337962810408
  7443  29      27.935525868722998      36.373369947671989      13.687320869439468
  7444  29      33.104890344296962      48.708717697843703      22.260238198777984
  7445  29      32.308862003573545      36.907575898337548      22.055933950193733
  7446  29      28.731692843692606      49.243022873742845      13.891672498354666
  7447  29      33.679212155479924      36.802203072858447      15.111193668330769
  7448  29      27.361226600988807      49.137615122884995      20.836492494679554
  7449  29      34.812499543866807       36.79797264369914      20.148970174939848
  7450  29      26.228216374569563      49.133543575322832      15.798841817106243
  7451  29       29.19367625710958       36.67060838071918      21.116095937940486
  7452  29      31.846865296844115       49.00593776950592      14.831637030467814
  7453  29      27.563356824546762      36.623135432900284      16.953063838861951
  7454  29      33.477224725915278      48.958496436747488      18.994669874544016
  7455  29      30.677449446941615      37.266917805878165      16.544007197632645
  7456  29      30.363068821931066      24.931573337532175      19.403513384936744
  7457   7      34.764659793828528      37.833298854514375       16.48170861304083
  7458   7      26.276004038858073      25.498040192795006      19.465953200215729
  7459   7      34.286413025889217      38.251083936849383      17.527538723235594
  7460   7      26.754203197186438      25.915861775915005      18.420129643201264
  7461   7      30.879856237622718      38.203233131290439       19.48746161311367
  7462   7       30.16063327509578      25.867872855389859      16.460100722456154
  7463   7      27.497639786103214      35.296089192631754      22.893246587450143
  7464   7      33.542771158848268      47.631437677219722      13.054306540417295
  7465   7      30.519968134487847      35.836961958583693      22.398686315239878
  7466   7      30.520533132075329      48.172352379867064      13.548918110599372
  7467   7      32.648629409937371       35.81848719282074      13.661613585784991
  7468   7      28.391984346285462      48.153880496899959      22.286077770431056
  7469   7      29.120340569218346      37.856237265400324      12.886192728070517
  7470   7       31.92004386828123      25.520689950459825      23.061503216613893
  7471   7      26.566842869196641      34.500355100071346      18.602642637603257
  7472   7      34.473781141266592      46.835801435702081      17.344949071211101
  7473   7      30.527663948962456      34.622883954255173      22.589571840240747
  7474   7      30.512785264434449       46.95824706114665      13.358190194308259
  7475   7      31.093424725664207      38.474721476666787      18.357506023348272
  7476   7      29.947147361143141      26.139419480747787      17.590057103887727
  7477   7      27.828719471502772      37.714293805117663      20.023502555703594
  7478   7      33.211850386206407      25.379002694441489      15.924052047999401
  7479   7      33.041517304334263      35.845206187253687      20.462471198089361
  7480   7      27.999124994481718      48.180664338975504      15.485141259891041
  7481   7      27.242485761717457      34.110608397982091       15.27973265470953
  7482   7        33.7979005251103      46.445894539433738      20.667936774904856
  7483   7      27.613987344291218      35.562033560328182      21.721256968701425
  7484   7      33.426522199316267      47.897387801629918       14.22630156786088
  7485   7      26.206115776491714      37.419273174931668      13.719297854839283
  7486   7      34.834255472531176      25.083953777005284      22.228426040591671
  7487   7      32.368410451750876      34.934435012933299      16.762550621259454
  7488   7      28.672230068582049      47.269963376336889      19.184953495434353
  7489   7      28.575934711028996      38.532459645205016      23.888215166023521
  7490   7      32.464481853166014      26.196895386726865       12.05945849177783
  7491   7      26.552939050702488      35.726766426985293      18.507949861601318
  7492   7      34.487629562703745      48.062233280919855      17.439676620336098
  7493   7      29.833602934096888      35.038260816936088      19.562405511609896
  7494   7       31.20700608552265      47.373666404722542      16.385185549545543
  7495   7      34.869431812199238      38.537887939378578       13.24319391672228
  7496   7       26.17102432960138      26.202548536708061      22.704552231408627
  7497   7      31.613968916377544      39.216995838274286      23.558237896249523
  7498   7      29.426445293182944      26.881589076152867      12.389374203903493
  7499   7      32.386445196826138      36.142793857916004      16.541087861564712
  7500   7      28.654008753493265      48.478309975856554      19.406469948999998
  7501   7      29.433991009128576      35.729023956686035      17.304491919534048
  7502   7      31.606371011074799       48.06432443646208      18.643170955291481
  7503   7      31.594733927905676      38.293741471677173      15.011395171585782
  7504   7      29.445833233525729       25.95840513377339      20.936298919264399
  7505   7      34.019797320811897      39.159066408308327      21.517253528327991
  7506   7      27.020817516498717      26.823750606988469      14.430375990639764
  7507   7      30.691418372575814      37.975219638640624      20.664252477766439
  7508   7      30.349041497862977      25.639770628390696      15.283320394967241
  7509   7      29.802514310336441      35.672049413149658      14.081104486164886
  7510   7      31.237936036546902      48.007332409653344      21.866552051633356
  7511   7      27.062548718094131      35.321989094208135       15.24230170613929
  7512   7      33.977975904141445      47.657257986808602      20.705402141704557
  7513   7      28.845349207730177      38.073626390027641      16.335859930164535
  7514   7      32.195179996408129       25.73845455614439      19.611740020404962
  7515   7      31.752973687926463       38.00221847174042      23.702037913897833
  7516   7      29.287492954621438      25.666811397166988      12.245563818666787
  7517   7      30.112398763744892      34.486265511164333      14.163105930650955
  7518   7      30.928021536327876      46.821551605180936      21.784569374064525
  7519   7       33.18875487469613      35.537806370092838      12.602484972374658
  7520   7      27.851774200763263      47.873140755091704      23.345159430586456
  7521   7      31.157618603032947      42.827768816960173      18.216007068571187
  7522   7      29.882866944375092      30.492323479240845      17.731601981231165
  7523   7      34.225206790328215      31.028970044927732      23.851537475080114
  7524   7      26.815276213336229      43.364410865425569      12.095881127729662
  7525   7      31.693191059399464       39.51278961313141      14.956170233455119
  7526   7      29.347430113741414      27.177454105063244      20.991566511000407
  7527   7      34.053721697851152      37.937892307007417      21.663161822793462
  7528   7      26.986803361539284      25.602590153805703      14.284341164656412
  7529   7      27.912044590498898        38.9353084572016      19.902284184560244
  7530   7      33.128491284866968      26.600007065151956      16.045303562402015
  7531   7      29.644439851717873      35.376056498965958      18.452610111326088
  7532   7      31.396023292157846      47.711443826455103       17.49501804496964
  7533   7       32.89281539630084      34.625794664333377      20.418872983690754
  7534   7      28.147704652702615      46.961238280747857      15.528645401025967
  7535   7      26.581511882864877      33.334863083849413      18.683704710699807
  7536   7      34.459129288956319       45.67028878809591      17.263961631828849
  7537   7      28.583469563461435       39.14239023216841      15.798966218786447
  7538   7      32.457054220474916      26.807202980300442       20.14868261463613
  7539   7      28.299787555504484      39.197185394881146      22.966693869623064
  7540   7      32.740742329001833      26.861651622094517      12.980918984777961
  7541   7      32.710977293841999      33.474212866703233      20.363254940667552
  7542   7      28.329306090539294      45.809618541553718      15.584135467166712
  7543   7      30.434713009348101      33.369415603615323      14.257563407564053
  7544   7      30.605648964029371      45.704705058080805      21.690241399890539
  7545   7      27.387778628996585      32.947542865825319      15.308677096691145
  7546   7      33.652459508646054      45.282843785995837      20.638927529158831
  7547   7       30.54918009306607      33.478559919364891      22.827036537431034
  7548   7      30.491320230622602       45.81388807061191      13.120917420181994
  7549   7      33.361493884349571      35.302087671615496      23.515684637040501
  7550   7      27.678821070249828      47.637414153255385      12.431863142250853
  7551   7      28.331220640106963      40.163858934096808      15.290680705362766
  7552   7      32.709143491176619      27.828762755466812      20.656885720867081
  7553   7       32.37035524884142      33.788735699870855      16.994884992292302
  7554   7      28.670378602660755      46.124247797238311      18.952703810450174
  7555   7      33.917861608167698      38.623534741907513      18.574537681202195
  7556   7      27.122727935664145      26.288441469166457        17.3731565706635
  7557   7      31.494696447412366      40.369902385763709      23.424848558998754
  7558   7      29.545694540492981      28.034499737889149      12.522726310135223
  7559   7      27.588783176779586      34.995867166327471      12.046100214941044
  7560   7      33.451604366157568       47.33122876881751      23.901444034754128
  7561   7      27.985571996462298      40.089458489126265       19.74801079963191
  7562   7      33.054990539623219      27.754167858948403      16.199576797268037
  7563   7      33.997529973052856      40.318598950420174      21.395477927003128
  7564   7      27.043144925854143      27.983261354051571      14.552317732154293
  7565   6      26.978645610561614      30.485812206894469      12.394696497034056
  7566   6      34.061820309897165      42.821223354914039       23.55278787368615
  7567   1       26.82719679431424      30.310721970068805      13.462480462340826
  7568   1      34.213248725362938      42.646305702812768      22.484982075123433
  7569   1      26.878898724426485      29.506480707319426      23.915263737545921
  7570   1      34.161630315597932      41.841859712810034      12.032178402557193
  7571   7      34.677050721453419      39.594914959188429      12.788365144285889
  7572   7      26.363422766941291      27.259572299915547      23.159385877251811
  7573   6      28.636697450620311      42.824752892898459      17.746462775778063
  7574   6      32.403831730160711      30.489151282886169      18.200724145929936
  7575   1      28.668909783623903      43.795136980061301      17.242147451157667
  7576   1      32.371681626878946      31.459692299307363      18.704767636231036
  7577   1      28.298157381966995      42.974279685419702      18.775981007790325
  7578   1      32.742191637205131      30.638298761156491      17.171090697166509
  7579   1      27.883967098346545      42.209437657068563      17.240020276512169
  7580   1      33.156623861874287      29.873929071883925       18.70719774025472
  7581   6      28.175835479027278      31.385946120379415      12.151070280382134
  7582   6      32.864692124361341      43.721347980125557      23.796471264151691
  7583   1      28.233045959774277      31.405922446838517      23.083003613986985
  7584   1       32.80759272831272      43.741515943141884       12.86454468871794
  7585   1      29.015471381769451      30.981042057162298      12.725882242858905
  7586   1      32.024955648683047      43.316409590986623      23.221855644400236
  7587   1      28.018928217571375      32.414003688232611      12.489076556313298
  7588   1      33.021584737150768      44.749309959424735      23.458244672431704
  7589   6      31.377335561351291      44.125141614702585      17.438883051664455
  7590   6      29.663233528308648      31.789709271392027      18.508800225105578
  7591   1      30.592565025323594      44.814070099309404      17.768116615851778
  7592   1       30.44790324602668       32.47873026258852      18.179493809978229
  7593   1      32.332506475765129      44.528087933065635       17.78710198998828
  7594   1       28.70798328938772      32.192717794787875       18.16079961696839
  7595   6      30.954910975951485      43.235189110852417      19.668496110389363
  7596   6      30.085468069266138      30.899737695312965      16.279132571583169
  7597   1      30.082468442329439      43.895067527383162      19.683464516382813
  7598   1      30.957758607625504      31.559828940743998      16.264129792591529
  7599   1      31.818773450839824      43.851081185700671      19.935964491388088
  7600   1      29.221428326353411      31.515400251303941      16.011845156066386
  7601   6      33.651533930064751      42.388907531512217      18.697365961158443
  7602   6       27.38894269423481      30.053321818778493      17.250229715560806
  7603   1      33.984308300017737       43.35110452284146      18.298016929261955
  7604   1      27.055850538442098      31.015225152223621      17.649926507719169
  7605   1      34.425034862866738      41.642204287573918      18.477661584528629
  7606   1      26.615590689075187      29.306443058715711      17.469809369230703
  7607   1      33.583894538843687      42.462749334445391      19.785790768335328
  7608   1      27.456733335701173      30.127595325757245      16.161833650811779
  7609   7      31.826909182300376      40.674849876759147      14.860832633785314
  7610   7      29.213814087287645      28.339531053269223      21.086914795673565
  7611   6      29.950311439311733      42.068631739322235      17.674782562367788
  7612   6      31.090177953520257      29.733139416249301       18.27275439806683
  7613   1      30.200622485579444       41.80194505463529      16.643695599521049
  7614   1      30.840123054930462      29.466549216936681      19.303941366142613
  7615   1      29.892431526268091      41.134522509124928      18.240237163115474
  7616   1      31.147891868958748       28.79896913402678      17.707374257105659
  7617   6      32.360769847962175      41.894829404022246      18.070124315534947
  7618   6      28.679706176097483      29.559400114000184      17.877503597254272
  7619   1      32.061433261695214      40.936514326461648      18.506962997393767
  7620   1      28.979011118161697      28.601084262478874      17.440685335465698
  7621   1      32.480445568425779      41.723831914473116      16.995883629544853
  7622   1       28.55993440252626      29.388501170120449      18.951757395642495
  7623   6      31.867812459317264      30.227129957213634      23.288983959667341
  7624   6      29.172602885197563       42.56253075012917      12.658635576776067
  7625   1      31.879888808695636      30.316523797856387      22.198517569110585
  7626   1       29.16015563110194      42.651864529850478      13.749103548539516
  7627   1       31.46667006252229      31.155779615594419      23.706179937225947
  7628   1      29.573818189793801      43.491164551884353      12.241521933856273
  7629   1      31.169235580504068      29.419901564795371      23.539814138188945
  7630   1        29.8711312303029       41.75517744073916       12.40800559006637
  7631   6      33.236360215834729      29.868077710081113      23.836758769123733
  7632   6      27.804116882822463      42.203524216284762      12.110668443570122
  7633   1      33.430845991691882      29.492010951981971      12.880412723333757
  7634   1      27.609726575055856      41.827448620790882      23.067004392570837
  7635   1      33.696518447539496      29.075969940642899      23.241615051183132
  7636   1      27.344018981101886      41.411436020179131       12.70589061130252
  7637   6      30.788747782691111      42.076886356465337       20.63226681405142
  7638   6      30.251701701162798      29.741507112285223      15.315373788107456
  7639   1      29.900321112560633      41.471869376801173      20.426573163469801
  7640   1      31.140316334152562      29.136746123464498      15.520830821509293
  7641   1      30.670214714981668      42.494297040302598       21.63846617692483
  7642   1      30.370030423291258      30.158994294838841      14.309230489955747
  7643   1      31.666884697908571      41.424945531778576      20.667456540377771
  7644   1      29.373751717153347      29.089330254335231      15.280230025987633
  7645   6      34.383759381942767      31.621104039138476      22.461032880459808
  7646   6      26.656778061318217      43.956676941706149      13.486334914620036
  7647   1      26.241761634052683      32.468953033224551      22.564085861322084
  7648   1       34.79865298433748      44.804405288199803      13.383145135501017
  7649   1      33.410777396210428       32.03499170034722      22.181118348844961
  7650   1      27.629798430232437      44.370546928543213       13.76617938690509
  7651   6      26.042831155236428      30.636714497956156      21.411798882103771
  7652   6      34.997779805025672      42.972377455041986      14.535667654093277
  7653   1      26.212725233879798        31.2027901736244      20.486999040924619
  7654   1      34.827678139999186      43.538447644126151      15.460438408255641
  7655   1      34.129420689860154       29.85787588109179       21.19946747654776
  7656   1      26.911317101536007      42.193662521868319      14.747964003311074
  7657   1      26.983314023829198      30.149786082235448      21.690479681515782
  7658   1      34.057448435002499      42.485181404341155      14.256993665428833
  7659   6      31.362148228836372      43.979237504759297      15.928838801924357
  7660   6      29.678656339901863      31.643736437153525      20.018904865114944
  7661   1      30.349888989472735      43.833569099962901      15.541073428310694
  7662   1      30.690915003867545      31.497638090455144       20.40660739627242
  7663   1       31.99561333264888      43.163366891911863      15.574845070593881
  7664   1      29.044900543548014      30.828019916364134      20.372828998364831
  7665   1      31.740769692685923      44.912341561232168      15.497543323723274
  7666   1      29.300432640665449      32.576926634984467      20.450413918043992
  7667   6      33.977039119607461       32.15394739279224      12.779935477549479
  7668   6      27.063510713570174      44.489360223346168       23.16744677916622
  7669   1      34.822335483703888      32.837787693502776      12.900730470175636
  7670   1      26.218249277139531      45.173209664548452      23.046595114800962
  7671   1      33.201089478874934       32.68720827933587      12.221659195560976
  7672   1      27.839459415967752      45.022639961603431      23.725711611174454
  7673   6      33.440809127742369      31.687245905679156       14.12035730768223
  7674   6      27.599676555689239      44.022588318486385       21.82703406364114
  7675   1      32.481461043000408      31.175077083945226      14.009606104463323
  7676   1      28.559026943753462      43.510433598486131      21.937795754024908
  7677   1      33.271058527426433      32.566725122179179      14.752338917581362
  7678   1      27.769396212756281      44.901991064408946      21.194923389130523
  7679   1      34.136958437355318      31.032959229617113      14.653738399280925
  7680   1      26.903425083139567      43.368261170847134      21.293838805009642
  7681  29      30.747705870562715      37.065198265910993      25.180752911991483
  7682  29      29.799736873901601      24.729866720580102      34.731865718283515
  7683  29      27.688964432421248      36.373368367892702      25.669848624912575
  7684  29      32.858328907995208      48.708716118064416      34.242765954251091
  7685  29      32.062300567271791      36.907574318558261       34.03846170566684
  7686  29      28.485131407390856      49.243021293963551       25.87420025382777
  7687  29      33.432650719178177      36.802201493079153      27.093721423803874
  7688  29      27.114665164687057      49.137613543105701      32.819020250152661
  7689  29      34.565938107565053      36.797971063919846      32.131497930412948
  7690  29      25.981654938267813      49.133541995543546      27.781369572579351
  7691  29       28.94711482080783      36.670606800939893      33.098623693413593
  7692  29      31.600303860542365      49.005936189726633      26.814164785940918
  7693  29      27.316795388245012      36.623133853120997      28.935591594335058
  7694  29      33.230663289613531      48.958494856968201       30.97719763001712
  7695  29      30.430888010639865      37.266916226098871      28.526534953105749
  7696  29      30.116507385629316      24.931571757752884      31.386041140409848
  7697   7      34.518098357526782      37.833297274735088      28.464236368513934
  7698   7      26.029442602556323      25.498038613015716      31.448480955688837
  7699   7      34.039851589587471      38.251082357070089      29.510066478708698
  7700   7      26.507641760884688      25.915860196135714      30.402657398674371
  7701   7      30.633294801320972      38.203231551511152      31.469989368586774
  7702   7       29.91407183879403      25.867871275610568      28.442628477929262
  7703   7      27.251078349801464       35.29608761285246      34.875774342923251
  7704   7      33.296209722546514      47.631436097440428      25.036834295890401
  7705   7      30.273406698186097      35.836960378804399      34.381214070712986
  7706   7      30.273971695773582       48.17235080008777      25.531445866072477
  7707   7      32.402067973635624      35.818485613041446      25.644141341258095
  7708   7      28.145422909983711      48.153878917120664      34.268605525904164
  7709   7      28.873779132916596       37.85623568562103      24.868720483543623
  7710   7       31.67348243197948      25.520688370680535         35.044030972087
  7711   7      26.320281432894891      34.500353520292052      30.585170393076364
  7712   7      34.227219704964838      46.835799855922787      29.327476826684205
  7713   7      30.281102512660709      34.622882374475886      34.572099595713851
  7714   7      30.266223828132695      46.958245481367356      25.340717949781364
  7715   7      30.846863289362457        38.4747198968875      30.340033778821379
  7716   7      29.700585924841391      26.139417900968496       29.57258485936083
  7717   7      27.582158035201022      37.714292225338369      32.006030311176701
  7718   7      32.965288949904661      25.379001114662202      27.906579803472507
  7719   7      32.794955868032517        35.8452046074744      32.444998953562468
  7720   7      27.752563558179972       48.18066275919621      27.467669015364148
  7721   7      26.995924325415707      34.110606818202797      27.262260410182638
  7722   7      33.551339088808554      46.445892959654444       32.65046453037796
  7723   7      27.367425907989464      35.562031980548895      33.703784724174533
  7724   7      33.179960763014513      47.897386221850631      26.208829323333983
  7725   7      25.959554340189964      37.419271595152381      25.701825610312387
  7726   7      34.587694036229422      25.083952197225994      34.210953796064771
  7727   7      32.121849015449129      34.934433433154013      28.745078376732561
  7728   7      28.425668632280299      47.269961796557595      31.167481250907461
  7729   7      28.329373274727246      38.532458065425729      35.870742921496628
  7730   7      32.217920416864267      26.196893806947571      24.041986247250936
  7731   7      26.306377614400738      35.726764847206006      30.490477617074426
  7732   7      34.241068126401991      48.062231701140561      29.422204375809205
  7733   7      29.587041497795138      35.038259237156794      31.544933267083003
  7734   7        30.9604446492209      47.373664824943248      28.367713305018647
  7735   7      34.622870375897492      38.537886359599284      25.225721672195384
  7736   7       25.92446289329963      26.202546956928771      34.687079986881727
  7737   7      31.367407480075798      39.216994258494999       35.54076565172263
  7738   7      29.179883856881194      26.881587496373577      24.371901959376601
  7739   7      32.139883760524391      36.142792278136717      28.523615617037816
  7740   7      28.407447317191515      48.478308396077267      31.388997704473105
  7741   7      29.187429572826826      35.729022376906741      29.287019675007151
  7742   7      31.359809574773049      48.064322856682793      30.625698710764588
  7743   7      31.348172491603925      38.293739891897879       26.99392292705889
  7744   7      29.199271797223979      25.958403553994099      32.918826674737502
  7745   7       33.77323588451015       39.15906482852904      33.499781283801099
  7746   7      26.774256080196967      26.823749027209175      26.412903746112868
  7747   7      30.444856936274064       37.97521805886133      32.646780233239539
  7748   7      30.102480061561227      25.639769048611406      27.265848150440345
  7749   7      29.555952874034695      35.672047833370371       26.06363224163799
  7750   7      30.991374600245152       48.00733082987405      33.849079807106463
  7751   7      26.815987281792381      35.321987514428841      27.224829461612394
  7752   7      33.731414467839691      47.657256407029315      32.687929897177661
  7753   7      28.598787771428427      38.073624810248354      28.318387685637639
  7754   7      31.948618560106382        25.7384529763651      31.594267775878066
  7755   7      31.506412251624713      38.002216891961133       35.68456566937094
  7756   7      29.040931518319688      25.666809817387698      24.228091574139892
  7757   7      29.865837327443145      34.486263931385047      26.145633686124061
  7758   7      30.681460100026126      46.821550025401649      33.767097129537632
  7759   7      32.942193438394384      35.537804790313551      24.585012727847765
  7760   7      27.605212764461513      47.873139175312417      35.327687186059563
  7761   7      30.911057166731197      42.827767237180879      30.198534824044291
  7762   7      29.636305508073342      30.492321899461555      29.714129736704269
  7763   7      33.978645354026469      31.028968465148441      35.834065230553222
  7764   7      26.568714777034479      43.364409285646275      24.078408883202766
  7765   7      31.446629623097714      39.512788033352123      26.938697988928222
  7766   7      29.100868677439664      27.177452525283954      32.974094266473514
  7767   7      33.807160261549399      37.937890727228123       33.64568957826657
  7768   7      26.740241925237534      25.602588574026413      26.266868920129518
  7769   7      27.665483154197148      38.935306877422313      31.884811940033348
  7770   7      32.881929848565214      26.600005485372666      28.027831317875119
  7771   7      29.397878415416123      35.376054919186672      30.435137866799195
  7772   7      31.149461855856096      47.711442246675816      29.477545800442748
  7773   7      32.646253959999086       34.62579308455409      32.401400739163861
  7774   7      27.901143216400865       46.96123670096857      27.511173156499073
  7775   7      26.334950446563127      33.334861504070119      30.666232466172914
  7776   7      34.212567852654566      45.670287208316623      29.246489387301953
  7777   7      28.336908127159685      39.142388652389116      27.781493974259554
  7778   7      32.210492784173162      26.807201400521151       32.13121037010923
  7779   7      28.053226119202733      39.197183815101852      34.949221625096172
  7780   7      32.494180892700079      26.861650042315226      24.963446740251069
  7781   7      32.464415857540253      33.474211286923946       32.34578269614066
  7782   7      28.082744654237544      45.809616961774424      27.566663222639818
  7783   7      30.188151573046351      33.369414023836029      26.240091163037157
  7784   7       30.35908752772762      45.704703478301511      33.672769155363646
  7785   7      27.141217192694835      32.947541286046032      27.291204852164249
  7786   7        33.4058980723443      45.282842206216543      32.621455284631935
  7787   7       30.30261865676432      33.478558339585597      34.809564292904142
  7788   7      30.244758794320852      45.813886490832623        25.1034451756551
  7789   7      33.114932448047817      35.302086091836202      35.498212392513608
  7790   7      27.432259633948078      47.637412573476098      24.414390897723958
  7791   7      28.084659203805213      40.163857354317521      27.273208460835871
  7792   7      32.462582054874872      27.828761175687522      32.639413476340181
  7793   7      32.123793812539674      33.788734120091561      28.977412747765406
  7794   7      28.423817166359004      46.124246217459017      30.935231565923281
  7795   7      33.671300171865951      38.623533162128226      30.557065436675302
  7796   7      26.876166499362395      26.288439889387167      29.355684326136608
  7797   7      31.248135011110616      40.369900805984415      35.407376314471861
  7798   7      29.299133104191231      28.034498158109859      24.505254065608327
  7799   7      27.342221740477836      34.995865586548177      24.028627970414149
  7800   7      33.205042929855814      47.331227189038216      35.883971790227235
  7801   7      27.739010560160548      40.089456909346978      31.730538555105014
  7802   7      32.808429103321465      27.754166279169112      28.182104552741144
  7803   7      33.750968536751103       40.31859737064088      33.378005682476235
  7804   7      26.796583489552393       27.98325977427228        26.5348454876274
  7805   6      26.732084174259867      30.485810627115178      24.377224252507162
  7806   6      33.815258873595411      42.821221775134752      35.535315629159257
  7807   1       26.58063535801249      30.310720390289514      25.445008217813932
  7808   1      33.966687289061184      42.646304123033474      34.467509830596541
  7809   1      26.632337288124734      29.506479127540135      35.897791493019028
  7810   1      33.915068879296179       41.84185813303074      24.014706158030297
  7811   7      34.430489285151666      39.594913379409135      24.770892899758994
  7812   7      26.116861330639541       27.25957072013626      35.141913632724915
  7813   6      28.390136014318561      42.824751313119165      29.728990531251171
  7814   6      32.157270293858957      30.489149703106882       30.18325190140304
  7815   1      28.422348347322149      43.795135400282007      29.224675206630774
  7816   1      32.125120190577192      31.459690719528073       30.68729539170414
  7817   1      28.051595945665245      42.974278105640416      30.758508763263432
  7818   1      32.495630200903385      30.638297181377201      29.153618452639616
  7819   1      27.637405662044795      42.209436077289276      29.222548031985276
  7820   1      32.910062425572534      29.873927492104634      30.689725495727824
  7821   6      27.929274042725531      31.385944540600125       24.13359803585524
  7822   6      32.618130688059587      43.721346400346263      35.778999019624791
  7823   1      27.986484523472527      31.405920867059226      35.065531369460089
  7824   1      32.561031292010966      43.741514363362597      24.847072444191046
  7825   1      28.768909945467701      30.981040477383011      24.708409998332012
  7826   1      31.778394212381301      43.316408011207329      35.204383399873343
  7827   1      27.772366781269625      32.414002108453325      24.471604311786404
  7828   1      32.775023300849014      44.749308379645448      35.440772427904804
  7829   6      31.130774125049541      44.125140034923298      29.421410807137558
  7830   6      29.416672092006898      31.789707691612737      30.491327980578681
  7831   1      30.346003589021844       44.81406851953011      29.750644371324885
  7832   1       30.20134180972493      32.478728682809233      30.162021565451333
  7833   1      32.085945039463382      44.528086353286341      29.769629745461387
  7834   1       28.46142185308597      32.192716215008581      30.143327372441497
  7835   6      30.708349539649738      43.235187531073123      31.651023865862467
  7836   6      29.838906632964388       30.89973611553367      28.261660327056273
  7837   1      29.835907006027689      43.895065947603868      31.665992271855917
  7838   1      30.711197171323754      31.559827360964707      28.246657548064633
  7839   1      31.572212014538074      43.851079605921385      31.918492246861192
  7840   1      28.974866890051661       31.51539867152465      27.994372911539489
  7841   6      33.404972493762997      42.388905951732923      30.679893716631547
  7842   6       27.14238125793306      30.053320238999198      29.232757471033914
  7843   1      33.737746863715991      43.351102943062173      30.280544684735059
  7844   1      26.809289102140347      31.015223572444327      29.632454263192272
  7845   1      34.178473426564985      41.642202707794631      30.460189340001737
  7846   1      26.369029252773437      29.306441478936421      29.452337124703806
  7847   1       33.33733310254194      42.462747754666097      31.768318523808432
  7848   1      27.210171899399423      30.127593745977954      28.144361406284887
  7849   7      31.580347745998626       40.67484829697986      26.843360389258422
  7850   7      28.967252650985895      28.339529473489932      33.069442551146672
  7851   6      29.703750003009983      42.068630159542948      29.657310317840896
  7852   6      30.843616517218507      29.733137836470007      30.255282153539934
  7853   1      29.954061049277694      41.801943474856003      28.626223354994156
  7854   1      30.593561618628712       29.46654763715739      31.286469121615717
  7855   1      29.645870089966341      41.134520929345641      30.222764918588581
  7856   1      30.901330432656998       28.79896755424749      29.689902012578766
  7857   6      32.114208411660428      41.894827824242952      30.052652071008055
  7858   6      28.433144739795733      29.559398534220893      29.860031352727379
  7859   1       31.81487182539346      40.936512746682361      30.489490752866875
  7860   1      28.732449681859947      28.601082682699584      29.423213090938802
  7861   1      32.233884132124032       41.72383033469383       28.97841138501796
  7862   1      28.313372966224509      29.388499590341155      30.934285151115603
  7863   6      31.621251023015514      30.227128377434344      35.271511715140448
  7864   6      28.926041448895813      42.562529170349876      24.641163332249171
  7865   1      31.633327372393886      30.316522218077097      34.181045324583692
  7866   1       28.91359419480019      42.651862950071191      25.731631304012623
  7867   1       31.22010862622054      31.155778035815132      35.688707692699055
  7868   1      29.327256753492051      43.491162972105059      24.224049689329377
  7869   1      30.922674144202318       29.41989998501608      35.522341893662052
  7870   1       29.62456979400115      41.755175860959866      24.390533345539474
  7871   6      32.989798779532983      29.868076130301823      35.819286524596841
  7872   6      27.557555446520713      42.203522636505475      24.093196199043227
  7873   1      33.184284555390136      29.492009372202681      24.862940478806863
  7874   1      27.363165138754105      41.827447041011595      35.049532148043937
  7875   1      33.449957011237743      29.075968360863609      35.224142806656232
  7876   1      27.097457544800136      41.411434440399844      24.688418366775625
  7877   6      30.542186346389361      42.076884776686043       32.61479456952452
  7878   6      30.005140264861048      29.741505532505933      27.297901543580561
  7879   1      29.653759676258883      41.471867797021886      32.409100918942904
  7880   1      30.893754897850812      29.136744543685204        27.5033585769824
  7881   1      30.423653278679915      42.494295460523304      33.620993932397937
  7882   1      30.123468986989508      30.158992715059551      26.291758245428852
  7883   1      31.420323261606821      41.424943951999282      32.649984295850878
  7884   1      29.127190280851597       29.08932867455594      27.262757781460738
  7885   6      34.137197945641013      31.621102459359186      34.443560635932911
  7886   6      26.410216625016467      43.956675361926855      25.468862670093142
  7887   1      25.995200197750933      32.468951453445257      34.546613616795192
  7888   1      34.552091548035726      44.804403708420516      25.365672890974121
  7889   1      33.164215959908674      32.034990120567926      34.163646104318062
  7890   1      27.383236993930687      44.370545348763926      25.748707142378194
  7891   6      25.796269718934678      30.636712918176865      33.394326637576874
  7892   6      34.751218368723926      42.972375875262699      26.518195409566385
  7893   1      25.966163797578048      31.202788593845106      32.469526796397723
  7894   1      34.581116703697433      43.538446064346857      27.442966163728745
  7895   1      33.882859253558401      29.857874301312499      33.181995232020867
  7896   1      26.664755665234257      42.193660942089025      26.730491758784179
  7897   1      26.736752587527448      30.149784502456157       33.67300743698889
  7898   1      33.810886998700752      42.485179824561868      26.239521420901941
  7899   6      31.115586792534621       43.97923592498001      27.911366557397464
  7900   6      29.432094903600113      31.643734857374234      32.001432620588048
  7901   1      30.103327553170985      43.833567520183607        27.5236011837838
  7902   1      30.444353567565795      31.497636510675854      32.389135151745521
  7903   1       31.74905189634713      43.163365312132576      27.557372826066985
  7904   1      28.798339107246264      30.828018336584844      32.355356753837938
  7905   1      31.494208256384173      44.912339981452874      27.480071079196378
  7906   1      29.053871204363702      32.576925055205173      32.432941673517099
  7907   6      33.730477683305708      32.153945813012953      24.762463233022583
  7908   6      26.816949277268424      44.489358643566874      35.149974534639327
  7909   1      34.575774047402142      32.837786113723482      24.883258225648742
  7910   1      25.971687840837781      45.173208084769158      35.029122870274065
  7911   1      32.954528042573187      32.687206699556576      24.204186951034082
  7912   1      27.592897979666002      45.022638381824144      35.708239366647561
  7913   6      33.194247691440623      31.687244325899869      26.102885063155334
  7914   6      27.353115119387489      44.022586738707091      33.809561819114244
  7915   1      32.234899606698662      31.175075504165935      25.992133859936427
  7916   1      28.312465507451712      43.510432018706837      33.920323509498012
  7917   1      33.024497091124687      32.566723542399885      26.734866673054466
  7918   1       27.52283477645453      44.901989484629652       33.17745114460363
  7919   1      33.890397001053572      31.032957649837822      26.636266154754029
  7920   1      26.656863646837817      43.368259591067847      33.276366560482742
  7921  29      31.240827121799203      61.735970764772333      1.2156974010452735
  7922  29      30.292858125138089      49.400639219441445      10.766810207337304
  7923  29      28.182085683657736      61.044140866754041      1.7047931139663628
  7924  29      33.351450159231696      73.379488616925755      10.277710443304878
  7925  29      32.555421818508279        61.5783468174196      10.073406194720627
  7926  29      28.978252658627344       73.91379379282489      1.9091447428815596
  7927  29      33.925771970414665      61.472973991940492       3.128665912857663
  7928  29      27.607786415923545       73.80838604196704      8.8539647392064484
  7929  29      35.059059358801541      61.468743562781185      8.1664424194667404
  7930  29      26.474776189504301      73.804314494404878      3.8163140616331384
  7931  29      29.440236072044318      61.341379299801233      9.1335681824673802
  7932  29      32.093425111778849      73.676708688587979      2.8491092749947078
  7933  29        27.8099166394815      61.293906351982336       4.970536083388847
  7934  29      33.723784540850019      73.629267355829541      7.0121421190709086
  7935  29      30.924009261876353      61.937688724960211      4.5614794421595377
  7936  29      30.609628636865803      49.602344256614224      7.4209856294636376
  7937   7       35.01121960876327      62.504069773596427      4.4991808575677226
  7938   7      26.522563853792811      50.168811111877055      7.4834254447426245
  7939   7      34.532972840823959      62.921854855931429      5.5450109677624866
  7940   7      27.000763012121176      50.586632694997057      6.4376018877281602
  7941   7       31.12641605255746      62.874004050372491      7.5049338576405642
  7942   7      30.407193090030518      50.538643774471907      4.4775729669830495
  7943   7      27.744199601037952        59.9668601117138      10.910718831977039
  7944   7      33.789330973783002      72.302208596301767      1.0717787849441902
  7945   7      30.766527949422585      60.507732877665738      10.416158559766773
  7946   7       30.76709294701007      72.843123298949109       1.566390355126267
  7947   7      32.895189224872112      60.489258111902785       1.679085830311885
  7948   7      28.638544161220199      72.824651415982004      10.303550014957949
  7949   7      29.366900384153084      62.527008184482369     0.90366497259741219
  7950   7      32.166603683215968      50.191460869541871      11.078975461140789
  7951   7      26.813402684131379      59.171126019153391      6.6201148821301521
  7952   7      34.720340956201326      71.506572354784126      5.3624213157379943
  7953   7      30.774223763897197      59.293654873337225      10.607044084767642
  7954   7      30.759345079369183      71.629017980228696      1.3756624388351535
  7955   7      31.339984540598945      63.145492395748839       6.374978267875167
  7956   7      30.193707176077879      50.810190399829835      5.6075293484146211
  7957   7       28.07527928643751      62.385064724199708      8.0409748002304884
  7958   7      33.458410201141149      50.049773613523541      3.9415242925262959
  7959   7      33.288077119269005       60.51597710633574      8.4799434426162552
  7960   7       28.24568480941646      72.851435258057549      3.5026135044179361
  7961   7      27.489045576652195      58.781379317064136      3.2972048992364256
  7962   7      34.044460340045042      71.116665458515783      8.6854090194317504
  7963   7      27.860547159225952      60.232804479410234      9.7387292132283196
  7964   7      33.673082014251001      72.568158720711978      2.2437738123877731
  7965   7      26.452675591426452       62.09004409401372      1.7367700993661772
  7966   7       35.08081528746591      49.754724696087337      10.245898285118564
  7967   7      32.614970266685617      59.605205932015352      4.7800228657863491
  7968   7      28.918789883516787      71.940734295418935      7.2024257399612486
  7969   7      28.822494525963734      63.203230564287068      11.905687410550415
  7970   7      32.711041668100755       50.86766630580891    0.076930736304725078
  7971   7      26.799498865637226      60.397537346067345      6.5254221061282127
  7972   7      34.734189377638479      72.733004200001901      5.4571488648629929
  7973   7      30.080162749031626      59.709031736018133      7.5798777561367912
  7974   7      31.453565900457388      72.044437323804587      4.4026577940724367
  7975   7       35.11599162713398      63.208658858460623      1.2606661612491736
  7976   7      26.417584144536118       50.87331945579011       10.72202447593552
  7977   7      31.860528731312286      63.887766757356339      11.575710140776419
  7978   7      29.673005108117682      51.552359995234916     0.40684644843038786
  7979   7      32.633005011760879      60.813564776998057      4.5585601060916048
  7980   7      28.900568568428003      73.149080894938606      7.4239421935268934
  7981   7      29.680550824063314       60.39979487576808      5.3219641640609412
  7982   7      31.852930826009537      72.735095355544132      6.6606431998183764
  7983   7      31.841293742840413      62.964512390759218      3.0288674161126767
  7984   7      29.692393048460467      50.629176052855442      8.9537711637912931
  7985   7      34.266357135746638      63.829837327390379      9.5347257728548875
  7986   7      27.267377331433455      51.494521526070514      2.4478482351666573
  7987   7      30.937978187510552      62.645990557722669      8.6817247222933318
  7988   7      30.595601312797715      50.310541547472745      3.3007926394941349
  7989   7      30.049074125271183       60.34282033223171      2.0985767306917804
  7990   7       31.48449585148164      72.678103328735389      9.8840242961602485
  7991   7      27.309108533028869       59.99276001329018       3.259773950666184
  7992   7      34.224535719076179      72.328028905890648      8.7228743862314513
  7993   7      29.091909022664915      62.744397309109694      4.3533321746914284
  7994   7       32.44173981134287      50.409225475226435      7.6292122649318568
  7995   7      31.999533502861201      62.672989390822472      11.719510158424725
  7996   7      29.534052769556176      50.337582316249033     0.26303606319368061
  7997   7      30.358958578679633      59.157036430246386      2.1805781751778497
  7998   7      31.174581351262614      71.492322524262988       9.802041618591419
  7999   7      33.435314689630871       60.20857728917489     0.61995721690155225
  8000   7      28.098334015698001      72.543911674173756      11.362631675113349
  8001   7      31.404178417967685      67.498539736042218      6.2334793130980799
  8002   7       30.12942675930983       55.16309439832289      5.7490742257580587
  8003   7      34.471766605262957      55.699740964009777      11.869009719607009
  8004   7      27.061836028270967      68.035181784507614     0.11335337225655616
  8005   7      31.939750874334202      64.183560532213463      2.9736424779820125
  8006   7      29.593989928676152      51.848225024145293      9.0090387555273015
  8007   7      34.300281512785887      62.608663226089462      9.6806340673203568
  8008   7      27.233363176474022      50.273361072887752      2.3018134091833065
  8009   7      28.158604405433636      63.606079376283652      7.9197564290871378
  8010   7      33.375051099801702      51.270777984234002      4.0627758069289097
  8011   7      29.890999666652611      60.046827418048011      6.4700823558529832
  8012   7      31.642583107092584      72.382214745537155      5.5124902894965349
  8013   7      33.139375211235574      59.296565583415429      8.4363452282176503
  8014   7      28.394264467637353      71.632009199829909       3.546117645552862
  8015   7      26.828071697799615      58.005634002931458      6.7011769552267015
  8016   7      34.705689103891054      70.341059707177962      5.2814338763557416
  8017   7      28.830029378396173      63.813161151250455      3.8164384633133417
  8018   7       32.70361403540965      51.477973899382491      8.1661548591630222
  8019   7      28.546347370439221      63.867956313963191      10.984166114149959
  8020   7      32.987302143936567      51.532422541176565     0.99839122930485635
  8021   7      32.957537108776741      58.144983785785286      8.3807271851944467
  8022   7      28.575865905474032      70.480389460635763      3.6016077116936072
  8023   7      30.681272824282839      58.040186522697368      2.2750356520909465
  8024   7      30.852208778964108       70.37547597716285       9.707713644417435
  8025   7      27.634338443931323      57.618313784907372      3.3261493412180396
  8026   7      33.899019323580788      69.953614705077882      8.6563997736857257
  8027   7      30.795739908000808      58.149330838446936      10.844508781957927
  8028   7       30.73788004555734      70.484658989693969      1.1383896647088887
  8029   7      33.608053699284305      59.972858590697541      11.533156881567393
  8030   7      27.925380885184566      72.308185072337437     0.44933538677774715
  8031   7      28.577780455041701      64.834629853178853        3.30815294988966
  8032   7       32.95570330611136      52.499533674548857      8.6743579653939733
  8033   7      32.616915063776162      58.459506618952901      5.0123572368191969
  8034   7      28.916938417595492      70.795018716320357      6.9701760549770704
  8035   7      34.164421423102439      63.294305660989565      6.5920099257290907
  8036   7      27.369287750598883      50.959212388248503      5.3906288151903956
  8037   7      31.741256262347104      65.040673304845754      11.442320803525647
  8038   7      29.792254355427719      52.705270656971202     0.54019855466211697
  8039   7      27.835342991714324      59.666638085409517    0.063572459467938755
  8040   7      33.698164181092302      72.001999687899556      11.918916279281023
  8041   7      28.232131811397036      64.760229408208318      7.7654830441588034
  8042   7      33.301550354557953      52.424938778030452      4.2170490417949322
  8043   7      34.244089787987591      64.989369869502227      9.4129501715300243
  8044   7      27.289704740788881      52.654032273133616      2.5697899766811876
  8045   6      27.225205425496355      55.156583125976518     0.41216874156095079
  8046   6      34.308380124831899      67.491994273996085      11.570260118213042
  8047   1      27.073756609248978      54.981492889150857      1.4799527068677203
  8048   1      34.459808540297672      67.317076621894813      10.502454319650329
  8049   1      27.125458539361222      54.177251626401478      11.932735982072813
  8050   1      34.408190130532667       66.51263063189208    0.049650647084087035
  8051   7      34.923610536388153      64.265685878270475     0.80583738881278266
  8052   7      26.609982581876029      51.930343218997599      11.176858121778706
  8053   6      28.883257265555049      67.495523811980505      5.7639350203049595
  8054   6      32.650391545095445      55.159922201968222      6.2181963904568294
  8055   1      28.915469598558637      68.465907899143346      5.2596196956845622
  8056   1       32.61824144181368      56.130463218389416      6.7222398807579298
  8057   1      28.544717196901733      67.645050604501762        6.79345325231722
  8058   1      32.988751452139873      55.309069680238537      5.1885629416934043
  8059   1      28.130526913281283      66.880208576150608      5.2574925210390653
  8060   1      33.403183676809022      54.544699990965974       6.724669984781614
  8061   6      28.422395293962019      56.056717039461461     0.16854252490902921
  8062   6      33.111251939296075      68.392118899207603      11.813943508678584
  8063   1      28.479605774709015      56.076693365920562       11.10047585851388
  8064   1      33.054152543247454      68.412286862223937      0.8820169332448351
  8065   1      29.262031196704189      55.651812976244351     0.74335448738580023
  8066   1      32.271515463617789      67.987180510068669       11.23932788892713
  8067   1      28.265488032506113      57.084774607314664     0.50654880084019216
  8068   1      33.268144552085502      69.420080878506781      11.475716916958596
  8069   6      31.623895376286029      68.795912533784644      5.4563552961913473
  8070   6      29.909793343243386      56.460480190474073      6.5262724696324712
  8071   1      30.839124840258332       69.48484101839145      5.7855888603786729
  8072   1      30.694463060961418      57.149501181670573      6.1969660545051228
  8073   1       32.57906629069987       69.19885885214768      5.8045742345151758
  8074   1      28.954543104322457       56.86348871386992      6.1782718614952854
  8075   6      31.201470790886226      67.905960029934462      7.6859683549162563
  8076   6      30.332027884200876       55.57050861439501      4.2966048161100616
  8077   1      30.329028257264177      68.565838446465207      7.7009367609097064
  8078   1      31.204318422560242       56.23059985982605      4.2816020371184234
  8079   1      32.065333265774562      68.521852104782724      7.9534367359149813
  8080   1      29.467988141288149       56.18617117038599      4.0293174005932784
  8081   6      33.898093744999485      67.059678450594262      6.7148382056853375
  8082   6      27.635502509169548      54.724092737860538      5.2677019600877015
  8083   1      34.230868114952479      68.021875441923513      6.3154891737888477
  8084   1      27.302410353376835      55.685996071305667      5.6673987522460632
  8085   1      34.671594677801473      66.312975206655977      6.4951338290555247
  8086   1      26.862150504009925       53.97721397779776      5.4872816137575953
  8087   1      33.830454353778428      67.133520253527436      7.8032630128622218
  8088   1      27.703293150635911      54.798366244839293      4.1793058953386746
  8089   7      32.073468997235111      65.345620795841199      2.8783048783122096
  8090   7      29.460373902222383      53.010301972351272      9.1043870402004607
  8091   6      30.196871254246471      66.739402658404288      5.6922548068946845
  8092   6      31.336737768454995      54.403910335331346      6.2902266425937228
  8093   1      30.447182300514182      66.472715973717342      4.6611678440479443
  8094   1        31.0866828698652      54.137320136018729      7.3214136106695067
  8095   1      30.138991341202829       65.80529342820698       6.257709407642368
  8096   1      31.394451683893486      53.469740053108829      5.7248465016325545
  8097   6      32.607329662896916      66.565600323104292      6.0875965600618427
  8098   6      28.926265991032221      54.230171033082229      5.8949758417811671
  8099   1      32.307993076629948      65.607285245543693      6.5244352419206626
  8100   1      29.225570933096435      53.271855181560923      5.4581575799925917
  8101   1       32.72700538336052      66.394602833555169      5.0133558740717481
  8102   1      28.806494217460997      54.059272089202494      6.9692296401693898
  8103   6      32.114372274251998      54.897900876295679      11.306456204194236
  8104   6      29.419162700132301      67.233301669211215     0.67610782130296165
  8105   1      32.126448623630374      54.987294716938436       10.21598981363748
  8106   1      29.406715446036678       67.32263544893253      1.7665757930664105
  8107   1      31.713229877457028      55.826550534676471      11.723652181752843
  8108   1      29.820378004728539      68.161935470966398     0.25899417838316663
  8109   1      31.415795395438806       54.09067248387742      11.557286382715841
  8110   1      30.117691045237638      66.425948359821206     0.42547783459326416
  8111   6      33.482920030769471      54.538848629163162      11.854231013650629
  8112   6      28.050676697757201      66.874295135366822      0.1281406880970157
  8113   1      33.677405806626624       54.16278187106402     0.89788496786065197
  8114   1      27.856286389990593      66.498219539872935       11.08447663709773
  8115   1      33.943078262474231      53.746740859724952      11.259087295710025
  8116   1      27.590578796036624      66.082206939261184     0.72336285582941362
  8117   6      31.035307597625849      66.747657275547382      8.6497390585783123
  8118   6      30.498261516097536      54.412278031367272      3.3328460326343503
  8119   1      30.146880927495371      66.142640295883226      8.4440454079966951
  8120   1        31.3868761490873      53.807517042546543      3.5383030660361872
  8121   1      30.916774529916403      67.165067959384643      9.6559384214517223
  8122   1      30.616590238225996      54.829765213920894      2.3267027344826414
  8123   1      31.913444512843309      66.095716450860621       8.684928784904665
  8124   1      29.620311532088085      53.760101173417283      3.2977022705145274
  8125   6      34.630319196877501      56.291874958220525      10.478505124986702
  8126   6      26.903337876252955      68.627447860788195      1.5038071591469302
  8127   1      26.488321448987421      57.139723952306596      10.581558105848979
  8128   1      35.045212799272214      69.475176207281862      1.4006173800279111
  8129   1      33.657337211145162      56.705762619429265      10.198590593371854
  8130   1      27.876358245167175      69.041317847625265      1.7836516314319844
  8131   6      26.289390970171166      55.307485417038208       9.429271126630665
  8132   6      35.244339619960414      67.643148374124038      2.5531398986201723
  8133   1      26.459285048814536      55.873561092706446      8.5044712854515137
  8134   1       35.07423795493392      68.209218563208196      3.4779106527825343
  8135   1      34.375980504794889      54.528646800173838      9.2169397210746542
  8136   1      27.157876916470745      66.864433440950364      2.7654362478379682
  8137   1      27.229873838763936      54.820557001317496      9.7079519260426785
  8138   1       34.30400824993724      67.155952323423207      2.2744659099557287
  8139   6      31.608708043771109      68.650008423841342      3.9463110464512514
  8140   6      29.925216154836601      56.314507356235573      8.0363771096418386
  8141   1      30.596448804407473      68.504340019044946      3.5585456728375893
  8142   1      30.937474818802283      56.168409009537193       8.424079640799313
  8143   1      32.242173147583614      67.834137810993923      3.5923173151207748
  8144   1      29.291460358482752      55.498790835446179      8.3903012428917254
  8145   1      31.987329507620661      69.583112480314213      3.5150155682501687
  8146   1       29.54699245560019      57.247697554066512      8.4678861625708883
  8147   6      34.223598934542196      56.824718311874292     0.79740772207637278
  8148   6      27.310070528504912      69.160131142428213      11.184919023693116
  8149   1       35.06889529863863      57.508558612584821     0.91820271470253068
  8150   1      26.464809092074269      69.843980583630497      11.064067359327856
  8151   1      33.447649293809675      57.357979198417915     0.23913144008786985
  8152   1       28.08601923090249      69.693410880685491      11.743183855701348
  8153   6      33.687368942677111      56.358016824761208      2.1378295522091237
  8154   6      27.846236370623977       68.69335923756843      9.8445063081680342
  8155   1      32.728020857935149      55.845848003027271      2.0270783489902171
  8156   1        28.8055867586882      68.181204517568176      9.9552679985518022
  8157   1      33.517618342361175      57.237496041261224       2.769811162108256
  8158   1      28.015956027691018      69.572761983490992      9.2123956336574171
  8159   1       34.38351825229006      55.703730148699165      2.6712106438078189
  8160   1      27.149984898074305      68.039032089929179      9.3113110495365348
  8161  29      30.994265685497453      61.735969184993046      13.198225156518379
  8162  29      30.046296688836339      49.400637639662158      22.749337962810408
  8163  29      27.935524247355985      61.044139286974755      13.687320869439468
  8164  29       33.10488872292995      73.379487037146461      22.260238198777984
  8165  29      32.308860382206532      61.578345237640313      22.055933950193733
  8166  29      28.731691222325594       73.91379221304561      13.891672498354666
  8167  29      33.679210534112912      61.472972412161205      15.111193668330769
  8168  29      27.361224979621795       73.80838446218776      20.836492494679554
  8169  29      34.812497922499794      61.468741983001898      20.148970174939848
  8170  29       26.22821475320255      73.804312914625598      15.798841817106243
  8171  29      29.193674635742568      61.341377720021939      21.116095937940486
  8172  29      31.846863675477103      73.676707108808685      14.831637030467814
  8173  29       27.56335520317975      61.293904772203049      16.953063838861951
  8174  29      33.477223104548266      73.629265776050246      18.994669874544016
  8175  29      30.677447825574603      61.937687145180924      16.544007197632645
  8176  29      30.363067200564053      49.602342676834937      19.403513384936744
  8177   7      34.764658172461516       62.50406819381714       16.48170861304083
  8178   7       26.27600241749106      50.168809532097768      19.465953200215729
  8179   7      34.286411404522205      62.921853276152142      17.527538723235594
  8180   7      26.754201575819426       50.58663111521777      18.420129643201264
  8181   7      30.879854616255706      62.874002470593197       19.48746161311367
  8182   7      30.160631653728768      50.538642194692621      16.460100722456154
  8183   7      27.497638164736202       59.96685853193452      22.893246587450143
  8184   7      33.542769537481256      72.302207016522487      13.054306540417295
  8185   7      30.519966513120835      60.507731297886451      22.398686315239878
  8186   7      30.520531510708317      72.843121719169829      13.548918110599372
  8187   7      32.648627788570366      60.489256532123498      13.661613585784991
  8188   7      28.391982724918449      72.824649836202724      22.286077770431056
  8189   7      29.120338947851334      62.527006604703082      12.886192728070517
  8190   7      31.920042246914218      50.191459289762584      23.061503216613893
  8191   7      26.566841247829629      59.171124439374111      18.602642637603257
  8192   7       34.47377951989958      71.506570775004832      17.344949071211101
  8193   7      30.527662327595444      59.293653293557938      22.589571840240747
  8194   7      30.512783643067436      71.629016400449416      13.358190194308259
  8195   7      31.093423104297194      63.145490815969552      18.357506023348272
  8196   7      29.947145739776129      50.810188820050548      17.590057103887727
  8197   7       27.82871785013576      62.385063144420428      20.023502555703594
  8198   7      33.211848764839395      50.049772033744254      15.924052047999401
  8199   7      33.041515682967251      60.515975526556446      20.462471198089361
  8200   7      27.999123373114706      72.851433678278255      15.485141259891041
  8201   7      27.242484140350445      58.781377737284856       15.27973265470953
  8202   7      33.797898903743288      71.116663878736503      20.667936774904856
  8203   7      27.613985722924205      60.232802899630947      21.721256968701425
  8204   7      33.426520577949255      72.568157140932684       14.22630156786088
  8205   7      26.206114155124702      62.090042514234433      13.719297854839283
  8206   7      34.834253851164164       49.75472311630805      22.228426040591671
  8207   7      32.368408830383864      59.605204352236065      16.762550621259454
  8208   7      28.672228447215037      71.940732715639655      19.184953495434353
  8209   7      28.575933089661984      63.203228984507774      23.888215166023521
  8210   7      32.464480231799001      50.867664726029624       12.05945849177783
  8211   7      26.552937429335476      60.397535766288058      18.507949861601318
  8212   7      34.487627941336733      72.733002620222621      17.439676620336098
  8213   7      29.833601312729876      59.709030156238853      19.562405511609896
  8214   7      31.207004464155638      72.044435744025293      16.385185549545543
  8215   7      34.869430190832233      63.208657278681343       13.24319391672228
  8216   7      26.171022708234368      50.873317876010823      22.704552231408627
  8217   7      31.613967295010532      63.887765177577052      23.558237896249523
  8218   7      29.426443671815932      51.552358415455629      12.389374203903493
  8219   7      32.386443575459126       60.81356319721877      16.541087861564712
  8220   7      28.654007132126253      73.149079315159312      19.406469948999998
  8221   7      29.433989387761564      60.399793295988793      17.304491919534048
  8222   7      31.606369389707787      72.735093775764838      18.643170955291481
  8223   7      31.594732306538663      62.964510810979931      15.011395171585782
  8224   7      29.445831612158717      50.629174473076155      20.936298919264399
  8225   7      34.019795699444884      63.829835747611085      21.517253528327991
  8226   7      27.020815895131705      51.494519946291227      14.430375990639764
  8227   7      30.691416751208802      62.645988977943382      20.664252477766439
  8228   7      30.349039876495965      50.310539967693458      15.283320394967241
  8229   7      29.802512688969429      60.342818752452416      14.081104486164886
  8230   7       31.23793441517989      72.678101748956095      21.866552051633356
  8231   7      27.062547096727119        59.9927584335109       15.24230170613929
  8232   7      33.977974282774433      72.328027326111368      20.705402141704557
  8233   7      28.845347586363165      62.744395729330407      16.335859930164535
  8234   7      32.195178375041124      50.409223895447148      19.611740020404962
  8235   7      31.752972066559451      62.672987811043186      23.702037913897833
  8236   7      29.287491333254426      50.337580736469747      12.245563818666787
  8237   7       30.11239714237788      59.157034850467099      14.163105930650955
  8238   7      30.928019914960863      71.492320944483694      21.784569374064525
  8239   7      33.188753253329118      60.208575709395603      12.602484972374658
  8240   7      27.851772579396251      72.543910094394462      23.345159430586456
  8241   7      31.157616981665935      67.498538156262939      18.216007068571187
  8242   7       29.88286532300808      55.163092818543603      17.731601981231165
  8243   7      34.225205168961203      55.699739384230497      23.851537475080114
  8244   7      26.815274591969217      68.035180204728334      12.095881127729662
  8245   7      31.693189438032451      64.183558952434169      14.956170233455119
  8246   7      29.347428492374402      51.848223444366006      20.991566511000407
  8247   7       34.05372007648414      62.608661646310175      21.663161822793462
  8248   7      26.986801740172272      50.273359493108465      14.284341164656412
  8249   7      27.912042969131885      63.606077796504366      19.902284184560244
  8250   7      33.128489663499955      51.270776404454715      16.045303562402015
  8251   7      29.644438230350861      60.046825838268717      18.452610111326088
  8252   7      31.396021670790834      72.382213165757861       17.49501804496964
  8253   7      32.892813774933828      59.296564003636142      20.418872983690754
  8254   7      28.147703031335602      71.632007620050615      15.528645401025967
  8255   7      26.581510261497865      58.005632423152171      18.683704710699807
  8256   7        34.4591276675893      70.341058127398668      17.263961631828849
  8257   7      28.583467942094423      63.813159571471175      15.798966218786447
  8258   7      32.457052599107904      51.477972319603204       20.14868261463613
  8259   7      28.299785934137471      63.867954734183904      22.966693869623064
  8260   7      32.740740707634821      51.532420961397278      12.980918984777961
  8261   7      32.710975672474987      58.144982206005999      20.363254940667552
  8262   7      28.329304469172282      70.480387880856483      15.584135467166712
  8263   7      30.434711387981089      58.040184942918088      14.257563407564053
  8264   7      30.605647342662358       70.37547439738357      21.690241399890539
  8265   7      27.387777007629573      57.618312205128078      15.308677096691145
  8266   7      33.652457887279041      69.953613125298602      20.638927529158831
  8267   7      30.549178471699058      58.149329258667649      22.827036537431034
  8268   7       30.49131860925559      70.484657409914675      13.120917420181994
  8269   7      33.361492262982559      59.972857010918254      23.515684637040501
  8270   7      27.678819448882816      72.308183492558143      12.431863142250853
  8271   7      28.331219018739951      64.834628273399574      15.290680705362766
  8272   7      32.709141869809606       52.49953209476957      20.656885720867081
  8273   7      32.370353627474408      58.459505039173614      16.994884992292302
  8274   7      28.670376981293742      70.795017136541077      18.952703810450174
  8275   7      33.917859986800686      63.294304081210271      18.574537681202195
  8276   7      27.122726314297132      50.959210808469216        17.3731565706635
  8277   7      31.494694826045354      65.040671725066474      23.424848558998754
  8278   7      29.545692919125969      52.705269077191915      12.522726310135223
  8279   7      27.588781555412574       59.66663650563023      12.046100214941044
  8280   7      33.451602744790556      72.001998108120276      23.901444034754128
  8281   7      27.985570375095286      64.760227828429024       19.74801079963191
  8282   7      33.054988918256207      52.424937198251165      16.199576797268037
  8283   7      33.997528351685844      64.989368289722933      21.395477927003128
  8284   7      27.043143304487131      52.654030693354329      14.552317732154293
  8285   6      26.978643989194602      55.156581546197231      12.394696497034056
  8286   6      34.061818688530153      67.491992694216805       23.55278787368615
  8287   1      26.827195172947228      54.981491309371563      13.462480462340826
  8288   1      34.213247103995926      67.317075042115533      22.484982075123433
  8289   1      26.878897103059472      54.177250046622191      23.915263737545921
  8290   1       34.16162869423092        66.5126290521128      12.032178402557193
  8291   7      34.677049100086407       64.26568429849118      12.788365144285889
  8292   7      26.363421145574279      51.930341639218312      23.159385877251811
  8293   6      28.636695829253298       67.49552223220121      17.746462775778063
  8294   6      32.403830108793699      55.159920622188935      18.200724145929936
  8295   1      28.668908162256891      68.465906319364066      17.242147451157667
  8296   1      32.371680005511934      56.130461638610129      18.704767636231036
  8297   1      28.298155760599983      67.645049024722468      18.775981007790325
  8298   1      32.742190015838119      55.309068100459257      17.171090697166509
  8299   1      27.883965476979533      66.880206996371328      17.240020276512169
  8300   1      33.156622240507275      54.544698411186687       18.70719774025472
  8301   6      28.175833857660265      56.056715459682174      12.151070280382134
  8302   6      32.864690502994328      68.392117319428309      23.796471264151691
  8303   1      28.233044338407264      56.076691786141275      23.083003613986985
  8304   1      32.807591106945708      68.412285282444643       12.86454468871794
  8305   1      29.015469760402439      55.651811396465064      12.725882242858905
  8306   1      32.024954027316042      67.987178930289389      23.221855644400236
  8307   1      28.018926596204363      57.084773027535377      12.489076556313298
  8308   1      33.021583115783756      69.420079298727501      23.458244672431704
  8309   6      31.377333939984279       68.79591095400535      17.438883051664455
  8310   6      29.663231906941636      56.460478610694793      18.508800225105578
  8311   1      30.592563403956582       69.48483943861217      17.768116615851778
  8312   1      30.447901624659668      57.149499601891286      18.179493809978229
  8313   1      32.332504854398117        69.1988572723684       17.78710198998828
  8314   1      28.707981668020707      56.863487134090633       18.16079961696839
  8315   6      30.954909354584473      67.905958450155168      19.668496110389363
  8316   6      30.085466447899126      55.570507034615723      16.279132571583169
  8317   1      30.082466820962427      68.565836866685927      19.683464516382813
  8318   1      30.957756986258492      56.230598280046763      16.264129792591529
  8319   1      31.818771829472812       68.52185052500343      19.935964491388088
  8320   1      29.221426704986399      56.186169590606703      16.011845156066386
  8321   6      33.651532308697739      67.059676870814968      18.697365961158443
  8322   6      27.388941072867798      54.724091158081251      17.250229715560806
  8323   1      33.984306678650725      68.021873862144218      18.298016929261955
  8324   1      27.055848917075085       55.68599449152638      17.649926507719169
  8325   1      34.425033241499719      66.312973626876683      18.477661584528629
  8326   1      26.615589067708175      53.977212398018473      17.469809369230703
  8327   1      33.583892917476675      67.133518673748156      19.785790768335328
  8328   1      27.456731714334161      54.798364665060006      16.161833650811779
  8329   7      31.826907560933364      65.345619216061905      14.860832633785314
  8330   7      29.213812465920633      53.010300392571985      21.086914795673565
  8331   6      29.950309817944721      66.739401078624994      17.674782562367788
  8332   6      31.090176332153245       54.40390875555206       18.27275439806683
  8333   1      30.200620864212432      66.472714393938048      16.643695599521049
  8334   1       30.84012143356345      54.137318556239443      19.303941366142613
  8335   1      29.892429904901078      65.805291848427686      18.240237163115474
  8336   1      31.147890247591736      53.469738473329542      17.707374257105659
  8337   6      32.360768226595162      66.565598743325012      18.070124315534947
  8338   6      28.679704554730471      54.230169453302949      17.877503597254272
  8339   1      32.061431640328202      65.607283665764413      18.506962997393767
  8340   1      28.979009496794685      53.271853601781636      17.440685335465698
  8341   1      32.480443947058767      66.394601253775875      16.995883629544853
  8342   1      28.559932781159247      54.059270509423207      18.951757395642495
  8343   6      31.867810837950252      54.897899296516393      23.288983959667341
  8344   6      29.172601263830551      67.233300089431935      12.658635576776067
  8345   1      31.879887187328624      54.987293137159149      22.198517569110585
  8346   1      29.160154009734928      67.322633869153236      13.749103548539516
  8347   1      31.466668441155278      55.826548954897184      23.706179937225947
  8348   1      29.573816568426789      68.161933891187118      12.241521933856273
  8349   1      31.169233959137056      54.090670904098133      23.539814138188945
  8350   1      29.871129608935888      66.425946780041926       12.40800559006637
  8351   6      33.236358594467717      54.538847049383875      23.836758769123733
  8352   6      27.804115261455451      66.874293555587528      12.110668443570122
  8353   1      33.430844370324877      54.162780291284733      12.880412723333757
  8354   1      27.609724953688843       66.49821796009364      23.067004392570837
  8355   1      33.696516826172484      53.746739279945658      23.241615051183132
  8356   1      27.344017359734874       66.08220535948189       12.70589061130252
  8357   6      30.788746161324099      66.747655695768088       20.63226681405142
  8358   6      30.251700079795786      54.412276451587985      15.315373788107456
  8359   1      29.900319491193621      66.142638716103932      20.426573163469801
  8360   1       31.14031471278555      53.807515462767256      15.520830821509293
  8361   1      30.670213093614656      67.165066379605364       21.63846617692483
  8362   1      30.370028801924246      54.829763634141599      14.309230489955747
  8363   1      31.666883076541559      66.095714871081327      20.667456540377771
  8364   1      29.373750095786335      53.760099593637989      15.280230025987633
  8365   6      34.383757760575755      56.291873378441238      22.461032880459808
  8366   6      26.656776439951205      68.627446281008915      13.486334914620036
  8367   1       26.24176001268567      57.139722372527309      22.564085861322084
  8368   1       34.79865136297046      69.475174627502568      13.383145135501017
  8369   1      33.410775774843415      56.705761039649978      22.181118348844961
  8370   1      27.629796808865425      69.041316267845971       13.76617938690509
  8371   6      26.042829533869416      55.307483837258914      21.411798882103771
  8372   6       34.99777818365866      67.643146794344744      14.535667654093277
  8373   1      26.212723612512786      55.873559512927159      20.486999040924619
  8374   1      34.827676518632174      68.209216983428917      15.460438408255641
  8375   1      34.129419068493142      54.528645220394552       21.19946747654776
  8376   1      26.911315480168994      66.864431861171084      14.747964003311074
  8377   1      26.983312402462186      54.820555421538209      21.690479681515782
  8378   1      34.057446813635487      67.155950743643913      14.256993665428833
  8379   6      31.362146607469359      68.650006844062062      15.928838801924357
  8380   6      29.678654718534851      56.314505776456286      20.018904865114944
  8381   1      30.349887368105723      68.504338439265666      15.541073428310694
  8382   1      30.690913382500533      56.168407429757906       20.40660739627242
  8383   1      31.995611711281867      67.834136231214629      15.574845070593881
  8384   1      29.044898922181002      55.498789255666892      20.372828998364831
  8385   1      31.740768071318911      69.583110900534933      15.497543323723274
  8386   1      29.300431019298436      57.247695974287225      20.450413918043992
  8387   6      33.977037498240449      56.824716732094998      12.779935477549479
  8388   6      27.063509092203162      69.160129562648933       23.16744677916622
  8389   1      34.822333862336876      57.508557032805534      12.900730470175636
  8390   1      26.218247655772519      69.843979003851217      23.046595114800962
  8391   1      33.201087857507922      57.357977618638628      12.221659195560976
  8392   1       27.83945779460074      69.693409300906197      23.725711611174454
  8393   6      33.440807506375357      56.358015244981921       14.12035730768223
  8394   6      27.599674934322227       68.69335765778915       21.82703406364114
  8395   1      32.481459421633396      55.845846423247991      14.009606104463323
  8396   1       28.55902532238645      68.181202937788896      21.937795754024908
  8397   1      33.271056906059421      57.237494461481944      14.752338917581362
  8398   1      27.769394591389268      69.572760403711698      21.194923389130523
  8399   1      34.136956815988306      55.703728568919878      14.653738399280925
  8400   1      26.903423461772555        68.0390305101499      21.293838805009642
  8401  29      30.747704249195703      61.735967605213752      25.180752911991483
  8402  29      29.799735252534589      49.400636059882864      34.731865718283515
  8403  29      27.688962811054235      61.044137707195461      25.669848624912575
  8404  29      32.858327286628196      73.379485457367167      34.242765954251091
  8405  29      32.062298945904779      61.578343657861019       34.03846170566684
  8406  29      28.485129786023844      73.913790633266316       25.87420025382777
  8407  29      33.432649097811165      61.472970832381911      27.093721423803874
  8408  29      27.114663543320045      73.808382882408466      32.819020250152661
  8409  29      34.565936486198041      61.468740403222604      32.131497930412948
  8410  29        25.9816533169008      73.804311334846304      27.781369572579351
  8411  29      28.947113199440818      61.341376140242645      33.098623693413593
  8412  29      31.600302239175353      73.676705529029391      26.814164785940918
  8413  29         27.316793766878      61.293903192423755      28.935591594335058
  8414  29      33.230661668246512      73.629264196270952       30.97719763001712
  8415  29      30.430886389272853       61.93768556540163      28.526534953105749
  8416  29      30.116505764262303      49.602341097055643      31.386041140409848
  8417   7      34.518096736159762      62.504066614037846      28.464236368513934
  8418   7       26.02944098118931      50.168807952318474      31.448480955688837
  8419   7      34.039849968220459      62.921851696372848      29.510066478708698
  8420   7      26.507640139517676      50.586629535438476      30.402657398674371
  8421   7      30.633293179953959      62.874000890813903      31.469989368586774
  8422   7      29.914070217427017      50.538640614913326      28.442628477929262
  8423   7      27.251076728434452      59.966856952155226      34.875774342923251
  8424   7      33.296208101179502      72.302205436743193      25.036834295890401
  8425   7      30.273405076819085      60.507729718107157      34.381214070712986
  8426   7       30.27397007440657      72.843120139390535      25.531445866072477
  8427   7      32.402066352268612      60.489254952344204      25.644141341258095
  8428   7      28.145421288616699      72.824648256423416      34.268605525904164
  8429   7      28.873777511549584      62.527005024923788      24.868720483543623
  8430   7      31.673480810612467       50.19145770998329         35.044030972087
  8431   7      26.320279811527879      59.171122859594817      30.585170393076364
  8432   7      34.227218083597833      71.506569195225552      29.327476826684205
  8433   7      30.281100891293697      59.293651713778644      34.572099595713851
  8434   7      30.266222206765683      71.629014820670108      25.340717949781364
  8435   7      30.846861667995444      63.145489236190258      30.340033778821379
  8436   7      29.700584303474379      50.810187240271254       29.57258485936083
  8437   7       27.58215641383401      62.385061564641134      32.006030311176701
  8438   7      32.965287328537649       50.04977045396496      27.906579803472507
  8439   7      32.794954246665505      60.515973946777152      32.444998953562468
  8440   7       27.75256193681296      72.851432098498975      27.467669015364148
  8441   7      26.995922704048695      58.781376157505562      27.262260410182638
  8442   7      33.551337467441542      71.116662298957209       32.65046453037796
  8443   7      27.367424286622452      60.232801319851653      33.703784724174533
  8444   7      33.179959141647501      72.568155561153389      26.208829323333983
  8445   7      25.959552718822952      62.090040934455139      25.701825610312387
  8446   7       34.58769241486241      49.754721536528756      34.210953796064771
  8447   7      32.121847394082117      59.605202772456771      28.745078376732561
  8448   7      28.425667010913287      71.940731135860347      31.167481250907461
  8449   7      28.329371653360234       63.20322740472848      35.870742921496628
  8450   7      32.217918795497255      50.867663146250329      24.041986247250936
  8451   7      26.306375993033726      60.397534186508764      30.490477617074426
  8452   7      34.241066505034979      72.733001040443327      29.422204375809205
  8453   7      29.587039876428125      59.709028576459559      31.544933267083003
  8454   7      30.960443027853888      72.044434164246013      28.367713305018647
  8455   7      34.622868754530479      63.208655698902049      25.225721672195384
  8456   7      25.924461271932618      50.873316296231529      34.687079986881727
  8457   7      31.367405858708786      63.887763597797758       35.54076565172263
  8458   7      29.179882235514182      51.552356835676335      24.371901959376601
  8459   7      32.139882139157379      60.813561617439476      28.523615617037816
  8460   7      28.407445695824503      73.149077735380018      31.388997704473105
  8461   7      29.187427951459814      60.399791716209499      29.287019675007151
  8462   7      31.359807953406037      72.735092195985544      30.625698710764588
  8463   7      31.348170870236913      62.964509231200637       26.99392292705889
  8464   7      29.199270175856967      50.629172893296861      32.918826674737502
  8465   7      33.773234263143138      63.829834167831791      33.499781283801099
  8466   7      26.774254458829954      51.494518366511933      26.412903746112868
  8467   7      30.444855314907052      62.645987398164088      32.646780233239539
  8468   7      30.102478440194215      50.310538387914164      27.265848150440345
  8469   7      29.555951252667683      60.342817172673122       26.06363224163799
  8470   7       30.99137297887814      72.678100169176815      33.849079807106463
  8471   7      26.815985660425369      59.992756853731606      27.224829461612394
  8472   7      33.731412846472679      72.328025746332074      32.687929897177661
  8473   7      28.598786150061414      62.744394149551113      28.318387685637639
  8474   7       31.94861693873937      50.409222315667854      31.594267775878066
  8475   7      31.506410630257701      62.672986231263891       35.68456566937094
  8476   7      29.040929896952676      50.337579156690452      24.228091574139892
  8477   7      29.865835706076133      59.157033270687805      26.145633686124061
  8478   7      30.681458478659113        71.4923193647044      33.767097129537632
  8479   7      32.942191817027364      60.208574129616309      24.585012727847765
  8480   7        27.6052111430945      72.543908514615168      35.327687186059563
  8481   7      30.911055545364185      67.498536576483644      30.198534824044291
  8482   7       29.63630388670633      55.163091238764309      29.714129736704269
  8483   7      33.978643732659457      55.699737804451203      35.834065230553222
  8484   7      26.568713155667467      68.035178624949026      24.078408883202766
  8485   7      31.446628001730701      64.183557372654874      26.938697988928222
  8486   7      29.100867056072651      51.848221864586712      32.974094266473514
  8487   7      33.807158640182386      62.608660066530881       33.64568957826657
  8488   7      26.740240303870522      50.273357913329171      26.266868920129518
  8489   7      27.665481532830135      63.606076216725072      31.884811940033348
  8490   7      32.881928227198202      51.270774824675421      28.027831317875119
  8491   7      29.397876794049111      60.046824258489423      30.435137866799195
  8492   7      31.149460234489084      72.382211585978567      29.477545800442748
  8493   7      32.646252338632081      59.296562423856848      32.401400739163861
  8494   7      27.901141595033852      71.632006040271321      27.511173156499073
  8495   7      26.334948825196115      58.005630843372877      30.666232466172914
  8496   7      34.212566231287553      70.341056547619374      29.246489387301953
  8497   7      28.336906505792673      63.813157991691881      27.781493974259554
  8498   7       32.21049116280615       51.47797073982391       32.13121037010923
  8499   7      28.053224497835721       63.86795315440461      34.949221625096172
  8500   7      32.494179271333067      51.532419381617984      24.963446740251069
  8501   7      32.464414236173241      58.144980626226705       32.34578269614066
  8502   7      28.082743032870532      70.480386301077189      27.566663222639818
  8503   7      30.188149951679339      58.040183363138794      26.240091163037157
  8504   7      30.359085906360608      70.375472817604276      33.672769155363646
  8505   7      27.141215571327823      57.618310625348784      27.291204852164249
  8506   7      33.405896450977295      69.953611545519308      32.621455284631935
  8507   7      30.302617035397308      58.149327678888355      34.809564292904142
  8508   7       30.24475717295384      70.484655830135381        25.1034451756551
  8509   7      33.114930826680805       59.97285543113896      35.498212392513608
  8510   7      27.432258012581066      72.308181912778849      24.414390897723958
  8511   7      28.084657582438201       64.83462669362028      27.273208460835871
  8512   7       32.46258043350786      52.499530514990276      32.639413476340181
  8513   7      32.123792191172662       58.45950345939432      28.977412747765406
  8514   7      28.423815544991992      70.795015556761768      30.935231565923281
  8515   7      33.671298550498932      63.294302501430977      30.557065436675302
  8516   7      26.876164877995382      50.959209228689922      29.355684326136608
  8517   7      31.248133389743604       65.04067014528718      35.407376314471861
  8518   7      29.299131482824219      52.705267497412621      24.505254065608327
  8519   7      27.342220119110824      59.666634925850936      24.028627970414149
  8520   7      33.205041308488802      72.001996528340982      35.883971790227235
  8521   7      27.739008938793535       64.76022624864973      31.730538555105014
  8522   7      32.808427481954453      52.424935618471871      28.182104552741144
  8523   7       33.75096691538409      64.989366709943639      33.378005682476235
  8524   7      26.796581868185381      52.654029113575035        26.5348454876274
  8525   6      26.732082552892855      55.156579966417937      24.377224252507162
  8526   6      33.815257252228399      67.491991114437511      35.535315629159257
  8527   1      26.580633736645478      54.981489729592269      25.445008217813932
  8528   1      33.966685667694172      67.317073462336225      34.467509830596541
  8529   1      26.632335666757722      54.177248466842897      35.897791493019028
  8530   1      33.915067257929167      66.512627472333492      24.014706158030297
  8531   7       34.43048766378466      64.265682718711901      24.770892899758994
  8532   7      26.116859709272529      51.930340059439018      35.141913632724915
  8533   6      28.390134392951548      67.495520652421931      29.728990531251171
  8534   6      32.157268672491945      55.159919042409641       30.18325190140304
  8535   1      28.422346725955137      68.465904739584772      29.224675206630774
  8536   1      32.125118569210187      56.130460058830835       30.68729539170414
  8537   1      28.051594324298232      67.645047444943174      30.758508763263432
  8538   1      32.495628579536373      55.309066520679963      29.153618452639616
  8539   1      27.637404040677783      66.880205416592034      29.222548031985276
  8540   1      32.910060804205521      54.544696831407393      30.689725495727824
  8541   6      27.929272421358519       56.05671387990288       24.13359803585524
  8542   6      32.618129066692575      68.392115739649029      35.778999019624791
  8543   1      27.986482902105514      56.076690206361981      35.065531369460089
  8544   1      32.561029670643954      68.412283702665349      24.847072444191046
  8545   1      28.768908324100689       55.65180981668577      24.708409998332012
  8546   1      31.778392591014288      67.987177350510095      35.204383399873343
  8547   1      27.772365159902613      57.084771447756083      24.471604311786404
  8548   1      32.775021679482002      69.420077718948207      35.440772427904804
  8549   6      31.130772503682529      68.795909374226056      29.421410807137558
  8550   6      29.416670470639886      56.460477030915499      30.491327980578681
  8551   1      30.346001967654832      69.484837858832876      29.750644371324885
  8552   1      30.201340188357918      57.149498022111992      30.162021565451333
  8553   1       32.08594341809637      69.198855692589092      29.769629745461387
  8554   1      28.461420231718957      56.863485554311339      30.143327372441497
  8555   6      30.708347918282726      67.905956870375888      31.651023865862467
  8556   6      29.838905011597376      55.570505454836429      28.261660327056273
  8557   1      29.835905384660677      68.565835286906633      31.665992271855917
  8558   1      30.711195549956742      56.230596700267469      28.246657548064633
  8559   1      31.572210393171062      68.521848945224136      31.918492246861192
  8560   1      28.974865268684649      56.186168010827409      27.994372911539489
  8561   6      33.404970872395985      67.059675291035688      30.679893716631547
  8562   6      27.142379636566048      54.724089578301957      29.232757471033914
  8563   1      33.737745242348979      68.021872282364924      30.280544684735059
  8564   1      26.809287480773335      55.685992911747086      29.632454263192272
  8565   1      34.178471805197972      66.312972047097389      30.460189340001737
  8566   1      26.369027631406425      53.977210818239179      29.452337124703806
  8567   1      33.337331481174928      67.133517093968862      31.768318523808432
  8568   1      27.210170278032411      54.798363085280712      28.144361406284887
  8569   7      31.580346124631614      65.345617636282611      26.843360389258422
  8570   7      28.967251029618883      53.010298812792691      33.069442551146672
  8571   6      29.703748381642971        66.7393994988457      29.657310317840896
  8572   6      30.843614895851495      54.403907175772765      30.255282153539934
  8573   1      29.954059427910682      66.472712814158754      28.626223354994156
  8574   1        30.5935599972617      54.137316976460149      31.286469121615717
  8575   1      29.645868468599328      65.805290268648392      30.222764918588581
  8576   1      30.901328811289986      53.469736893550248      29.689902012578766
  8577   6      32.114206790293416      66.565597163545718      30.052652071008055
  8578   6       28.43314311842872      54.230167873523655      29.860031352727379
  8579   1      31.814870204026448      65.607282085985119      30.489490752866875
  8580   1      28.732448060492935      53.271852022002342      29.423213090938802
  8581   1       32.23388251075702      66.394599673996581       28.97841138501796
  8582   1      28.313371344857497      54.059268929643913      30.934285151115603
  8583   6      31.621249401648502      54.897897716737099      35.271511715140448
  8584   6        28.9260398275288      67.233298509652641      24.641163332249171
  8585   1      31.633325751026874      54.987291557379855      34.181045324583692
  8586   1      28.913592573433178      67.322632289373942      25.731631304012623
  8587   1      31.220107004853528       55.82654737511789      35.688707692699055
  8588   1      29.327255132125039       68.16193231140781      24.224049689329377
  8589   1      30.922672522835306      54.090669324318839      35.522341893662052
  8590   1      29.624568172634138      66.425945200262632      24.390533345539474
  8591   6       32.98979715816597      54.538845469604581      35.819286524596841
  8592   6        27.5575538251537      66.874291975808234      24.093196199043227
  8593   1      33.184282934023123      54.162778711505439      24.862940478806863
  8594   1      27.363163517387093      66.498216380314346      35.049532148043937
  8595   1      33.449955389870738      53.746737700166364      35.224142806656232
  8596   1      27.097455923433124      66.082203779702596      24.688418366775625
  8597   6      30.542184725022349      66.747654115988809       32.61479456952452
  8598   6      30.005138643494035      54.412274871808691      27.297901543580561
  8599   1       29.65375805489187      66.142637136324637      32.409100918942904
  8600   1        30.8937532764838      53.807513882987962        27.5033585769824
  8601   1      30.423651657312902      67.165064799826069      33.620993932397937
  8602   1      30.123467365622496      54.829762054362305      26.291758245428852
  8603   1      31.420321640239809      66.095713291302047      32.649984295850878
  8604   1      29.127188659484585      53.760098013858695      27.262757781460738
  8605   6      34.137196324274001      56.291871798661944      34.443560635932911
  8606   6      26.410215003649455      68.627444701229621      25.468862670093142
  8607   1       25.99519857638392      57.139720792748015      34.546613616795192
  8608   1      34.552089926668714      69.475173047723274      25.365672890974121
  8609   1      33.164214338541669      56.705759459870684      34.163646104318062
  8610   1      27.383235372563675      69.041314688066677      25.748707142378194
  8611   6      25.796268097567665       55.30748225747962      33.394326637576874
  8612   6      34.751216747356906       67.64314521456545      26.518195409566385
  8613   1      25.966162176211036      55.873557933147865      32.469526796397723
  8614   1       34.58111508233042      68.209215403649623      27.442966163728745
  8615   1      33.882857632191389      54.528643640615257      33.181995232020867
  8616   1      26.664754043867244      66.864430281391776      26.730491758784179
  8617   1      26.736750966160436      54.820553841758915       33.67300743698889
  8618   1      33.810885377333733      67.155949163864619      26.239521420901941
  8619   6      31.115585171167609      68.650005264282768      27.911366557397464
  8620   6      29.432093282233101      56.314504196676992      32.001432620588048
  8621   1      30.103325931803973      68.504336859486372        27.5236011837838
  8622   1      30.444351946198783      56.168405849978612      32.389135151745521
  8623   1      31.749050274980117      67.834134651435335      27.557372826066985
  8624   1      28.798337485879252      55.498787675887598      32.355356753837938
  8625   1      31.494206635017161      69.583109320755639      27.480071079196378
  8626   1       29.05386958299669      57.247694394507931      32.432941673517099
  8627   6      33.730476061938695      56.824715152315704      24.762463233022583
  8628   6      26.816947655901412      69.160127982869625      35.149974534639327
  8629   1       34.57577242603513       57.50855545302624      24.883258225648742
  8630   1      25.971686219470769      69.843977424071909      35.029122870274065
  8631   1      32.954526421206168      57.357976038859334      24.204186951034082
  8632   1       27.59289635829899      69.693407721126903      35.708239366647561
  8633   6      33.194246070073611      56.358013665202627      26.102885063155334
  8634   6      27.353113498020477      68.693356078009856      33.809561819114244
  8635   1      32.234897985331649      55.845844843468697      25.992133859936427
  8636   1        28.3124638860847      68.181201358009602      33.920323509498012
  8637   1      33.024495469757667       57.23749288170265      26.734866673054466
  8638   1      27.522833155087518      69.572758823932418       33.17745114460363
  8639   1      33.890395379686552      55.703726989140584      26.636266154754029
  8640   1      26.656862025470804      68.039028930370606      33.276366560482742
